 # Version information for this restart file 
 # current date 2024-12-10 17:44:49.280
 # current working dir /home/ndv3235/comp-lab-class-2024/Week12-IntroAIMD/Run_Proton
 # Program compiled at                              Sat Dec 12 18:27:15 EST 2020
 # Program compiled on                                         cs001.nyu.cluster
 # Program compiled for                                                nyu-intel
 # Source code revision number                                       git:8c64c6e
 &GLOBAL
   PRINT_LEVEL  LOW
   PROJECT_NAME proton_aimd_1ns_every0.5f
   RUN_TYPE  MD
   WALLTIME 21600
 &END GLOBAL
 &MOTION
   &GEO_OPT
     OPTIMIZER  BFGS
     MAX_ITER  100
     MAX_DR     3.0000000000000001E-03
     &BFGS
     &END BFGS
   &END GEO_OPT
   &MD
     ENSEMBLE  NVT
     STEPS  2000
     TIMESTEP     4.9999999999999994E-01
     STEP_START_VAL  1000
     TIME_START_VAL     4.9999999999999636E+02
     ECONS_START_VAL    -1.1026316107807854E+03
     TEMPERATURE     3.0000000000000000E+02
     &THERMOSTAT
       TYPE  GLE
       REGION  MASSIVE
       &GLE
         NDIM  5
         A_SCALE     1.0000000000000000E+00
         A_LIST     1.8595758612559999E+02    2.7263853498399998E-01    1.1526100454610001E+01   -3.6414578262600003E+01 \
             2.3173375816020001E+02
         A_LIST    -2.7809524712060002E-01    8.5951591808710006E-05    7.2189048017650004E-01   -1.9844539343859999E-01 \
             4.2409257583420001E-01
         A_LIST    -1.4825808131210000E+01   -7.2189048017650004E-01    1.3590902121280000E+00    5.1498896280349999E+00 \
            -9.9949268450990001E+00
         A_LIST    -1.0372189126880000E+01    1.9844539343859999E-01   -5.1498896280349999E+00    2.6661910891169999E+01 \
             1.1507715495310000E+01
         A_LIST     2.1801346360420001E+02   -4.2409257583420001E-01    9.9949268450990001E+00   -1.1507715495310000E+01 \
             3.0958394565589998E+02
         &THERMOSTAT_ENERGY
               1.0796422945870451E-03
              -1.7706360380570440E-03
              -3.5082116215571875E-03
               5.5434791808306920E-03
              -4.3123097748755676E-03
               1.8542616226962280E-03
               7.0257524560867288E-03
              -6.9942297738932960E-03
               2.9116878413152593E-03
               5.8453743822627106E-03
               7.6413862097734148E-03
              -2.6348632534444480E-03
              -4.4327406728147181E-03
              -6.8824352443062680E-03
               2.9370515262338282E-03
              -4.8330580163833672E-03
               7.5054660606635052E-03
              -7.7947256070904870E-03
               2.7388402327094752E-03
              -2.3907487915014814E-03
               1.9800675887302645E-03
               1.8155700538250385E-03
              -6.0159020382769988E-03
               3.0085681006334491E-03
              -2.2428700736718925E-03
              -7.2276754884559730E-03
               3.2081295330819307E-03
               6.3628885350012687E-03
               1.5431211785530883E-03
              -1.7653954967048586E-04
               2.9632289167262849E-02
               8.7522409633633870E-03
               1.1075524729255470E-02
               7.1409125477503114E-03
               4.3656787610670865E-03
               1.1049833012526759E-02
              -4.1912870170755911E-03
               2.2317882979269743E-04
              -1.0191278367923469E-03
              -6.0284560323208168E-03
               5.1599673833454462E-03
              -2.7204849800848178E-04
               3.4245508012089080E-03
               2.4638886433655405E-03
              -8.4755580353913036E-05
               2.1955768831884983E-03
              -6.0853278088660754E-03
               9.9399414305324264E-03
               2.5355987178910101E-03
              -7.1967726283023847E-03
               4.7382979270091229E-03
              -9.8048288590380558E-03
              -2.3615699476491185E-03
               9.6403172087471782E-03
              -4.8841112942366359E-03
              -9.1919520601416692E-04
               1.6163328680939924E-03
               1.0186880074457227E-03
               2.4474659101046481E-03
               4.1895359450289599E-03
              -2.7597766652641153E-03
               1.2114901188004891E-04
               9.8566242216853988E-03
               1.3696348290731632E-03
              -1.6911884249226341E-03
               3.6758141445077598E-03
              -6.3099197779919389E-03
              -3.1216965642405421E-03
               8.5501423427431899E-03
               3.8370742432407329E-03
              -5.8984824311356359E-05
              -7.4174467639211063E-03
              -2.8472046307724303E-03
               4.7471135199735372E-03
               1.2961159726538887E-03
              -6.7900144250949961E-03
               7.0272032280588679E-03
               8.4902847627556736E-03
               1.1884166432906657E-02
              -7.0251618946403360E-03
              -7.0038428172757867E-03
              -1.5345272422362523E-03
               2.5531622100956127E-03
               1.1377985306953260E-04
               3.4592597412557704E-04
               5.5074851381358200E-03
              -2.7961105790688060E-03
               3.9323810751369615E-04
               1.4282732082462823E-03
              -1.7999676746819507E-03
               1.8015831441106169E-03
              -6.9541011804915911E-03
              -2.0967066395820324E-05
              -2.0158491662887077E-03
              -5.8161770362116071E-03
               5.1261547329505188E-03
              -4.2718253621609175E-03
               4.7126450476257563E-03
               7.0168476643543368E-03
               1.4838930401873385E-03
              -7.1535507736573587E-04
              -7.4777168638709068E-03
              -3.0665907868329067E-03
              -6.3268479355349733E-03
               7.0735831829087268E-03
               2.2460969280556336E-03
               6.9222221839078495E-03
               1.3427868612461030E-03
               6.9367970672623309E-03
              -5.2775964423798141E-03
              -5.0316096144817813E-04
              -4.7649947628890122E-03
               2.6206506500097981E-03
               6.8252380575075473E-03
               2.8934977947812001E-03
               1.7993003097443870E-03
              -5.0640506613377498E-03
               1.3766002146301201E-03
               1.6149445543040257E-03
              -1.8200917723114017E-03
              -5.5558356099465536E-04
               2.2301324736512698E-03
               8.9413467932884690E-03
               5.1782963033910672E-03
              -6.2851909716868555E-03
              -1.0091881249410071E-02
              -2.5547090683891438E-05
               1.2707720193567387E-04
               3.0067571142581404E-03
              -5.4810630379206150E-03
              -4.1230980495023817E-03
               5.4122929521389692E-03
              -1.7860519200963037E-03
               1.0683895998921415E-02
              -3.7114088304606042E-03
               4.5022248832020054E-03
              -1.6912745748941308E-03
              -6.6213798283061200E-03
              -3.9595319161189464E-04
              -1.0126130406752415E-02
               3.4884247241405127E-03
               4.5960061334260165E-03
               7.3462698522589777E-03
              -3.3474355337310903E-03
              -3.8498291994538826E-03
              -1.9773976875855736E-03
               1.8696812675277909E-03
              -2.5053572363700532E-04
              -4.1647233100374804E-04
              -6.2682480680505406E-03
              -2.6915991589262097E-03
               2.3251732842030897E-03
              -2.3159936988766494E-03
              -2.2564500961963010E-03
              -8.0236464075616608E-05
               1.5781879543473379E-03
               2.7200712820573143E-03
               4.7768157392693927E-04
              -6.1239113812258661E-03
               7.0121845489887862E-03
              -6.3460798423232937E-03
              -6.2124592054576145E-04
              -1.4443282586980335E-04
               2.7063833036124387E-03
               7.3136620992264693E-03
               8.4260964547316006E-03
               9.3765242774047370E-03
              -6.0693492089080609E-03
              -5.6548212350907290E-03
              -2.1411525088610391E-03
              -2.3688658460140062E-03
              -1.6071321641890467E-03
              -2.7126641064189046E-03
               3.2550786665071088E-04
              -6.4555635335354156E-03
               4.5041323954637166E-03
               6.9018865404598638E-03
               1.7681276730862215E-03
              -6.7191817782338353E-03
               5.9319415003486605E-03
              -1.6081314960180385E-03
              -9.8286415310080370E-04
               3.4090577809896610E-03
              -7.9554466618613779E-03
               4.4934849420588474E-03
               1.5430253187416953E-03
               3.9655515443355518E-04
              -5.3801456951421663E-03
              -2.1774545387406724E-03
              -7.8140700394410526E-04
               2.2365218769665940E-04
              -1.1967017878850024E-03
              -1.2341261846874620E-03
               1.9522876488392423E-03
               4.7549860795597235E-03
              -1.9871002674139945E-03
              -1.8804292302961208E-03
               3.5837565156657280E-04
               2.4051831436830273E-03
              -5.8148492448543011E-04
               4.8845361626879925E-03
              -1.0209396971908891E-02
               1.8299719538081012E-03
              -1.7972909575062444E-03
              -1.6758866870194215E-03
               6.8863608683952379E-03
              -2.7218707828657882E-03
               4.5369235035103263E-03
               2.8982649876162008E-03
               4.5966190888209494E-03
               9.5425620559826162E-04
              -2.1843987587492732E-03
               2.7560476878167329E-04
              -1.4736684100129680E-03
              -2.2826956565026226E-03
               9.3579652701558105E-04
              -1.3981531886838598E-03
              -1.7066464958888094E-03
              -4.7055695295658730E-04
              -3.3359089650503815E-03
               6.3322618558167110E-04
              -5.3107418675995572E-03
              -6.7104374128968023E-03
               5.4655697737738202E-03
              -2.2411682003035498E-03
              -3.5957641555582911E-03
               8.1416295666833765E-04
               6.3508076983536147E-04
              -4.7471666500610360E-03
               7.8438578446862501E-04
              -5.3559924402839234E-03
               2.0793800448523124E-03
               4.4865165267180731E-03
              -2.5100795747017104E-03
               2.9612394726846497E-03
              -6.7276915518068073E-04
              -2.2069578748928394E-03
               4.3394834157866420E-04
               2.9416597592220933E-03
               7.6201009345457874E-04
               3.7108699980735907E-03
              -9.9337419443104782E-03
               5.1349194634991513E-03
               1.2294777379552040E-03
              -4.5079741574007178E-04
               1.4763871858717762E-04
              -1.5143760929813830E-03
              -1.9944763243991224E-03
              -7.8709034868549633E-04
              -5.7123229827679613E-04
              -4.9358430146414210E-04
               1.9965310330631342E-04
              -5.8182478385317227E-03
              -2.1613479101468881E-03
               9.7840768765385740E-04
              -3.9055860458059415E-03
               1.7198186533865054E-02
              -5.0877059450176723E-03
               1.7184974593383896E-03
              -1.7563425874053559E-02
               1.5719819192047867E-02
               3.4811976930046971E-03
               4.2543707876121850E-03
               6.2920276172897830E-03
               9.5595555438024084E-03
              -6.7426517781107101E-03
              -2.0465656895672264E-03
              -5.7781896927574638E-03
              -8.3769993273017443E-03
               3.6344319733354314E-03
              -1.7537036693835906E-03
              -4.0356159175939628E-03
               6.8996156378496138E-03
               5.1449662641698223E-03
               3.3062429585422656E-03
               2.2074451411627119E-03
              -1.4374432862317625E-02
               1.2832731498577568E-02
              -8.2565889505417742E-03
               3.0573390873410138E-03
              -1.9194140730614733E-03
               3.3509980791798163E-03
               2.1675135318745100E-03
               2.7203272474208206E-04
              -9.4915402461480402E-04
              -7.4914045964531682E-03
               8.0624857076081694E-03
              -3.8053179680458344E-03
              -3.4142842870459379E-03
              -4.3606258443659538E-03
              -7.2520966351024489E-04
               1.6914364654133003E-03
               7.4917099981587952E-03
              -4.2188605746725132E-03
              -5.2082233944637504E-03
               6.8068966851273244E-03
              -5.6752969457621195E-07
              -4.5060431421667271E-04
              -3.3732597689860077E-03
              -4.5345617696122501E-03
              -3.6452654916375249E-03
               6.9642167215900417E-03
               9.8382609647676908E-03
              -1.0205832307497633E-03
               1.8147390913508545E-03
              -6.4324108159742703E-03
              -1.0312622238658092E-03
              -8.8059540216890058E-04
               2.9413148640295766E-03
               1.1844628325688025E-02
               1.1794820908184033E-03
              -1.4868102265040426E-02
               3.1197553435157099E-03
               8.4573394721208280E-03
              -3.2996250980151750E-03
               2.2342319520141972E-03
              -1.0178071742793964E-04
               2.1893028974807557E-03
               9.8112348386666937E-04
              -3.6971580747449614E-03
               1.3961069161445770E-02
              -5.5152322425654262E-03
              -7.2603010395119062E-03
               7.0814165154907136E-03
               1.6527174047627773E-03
               1.3529206295844669E-03
               1.0892682896741922E-03
              -9.2604065539670548E-04
               1.2583992688524250E-03
              -4.0523309251441330E-03
              -2.3059976602312639E-04
              -5.2782337959475763E-03
               4.7941047356347081E-03
              -3.5274626186073623E-03
               2.3652662416041403E-03
              -1.4270275935382497E-04
               1.0698568405707619E-02
              -3.5426041091944980E-03
              -6.0020394168214947E-03
               7.9724351080162348E-03
               1.1560318640406559E-05
              -3.9732140036645332E-03
               2.8034316880809662E-03
              -2.1753905086923587E-04
              -2.2289691294730884E-03
              -4.8638910715090126E-03
               3.8472878360912557E-03
              -4.5391698085069801E-03
              -4.0328816033802280E-03
               2.1205582624387329E-03
               5.7058011105911438E-04
               6.6057401676724867E-03
              -4.4988111308921722E-03
              -9.9603025107238377E-04
              -8.3459783366764215E-03
               9.5055741749416924E-03
               2.8578616281935850E-03
              -6.4650213677922988E-03
               3.0912127657436754E-03
               8.1094996077788247E-03
              -2.8791462152603518E-04
              -1.0957154365766764E-03
              -4.1182901313513154E-03
              -2.2843061012961506E-03
              -3.1746254551941501E-03
               1.6601627350933755E-02
               6.2048740007640286E-04
               1.1417327920696862E-03
              -2.3621384286653252E-03
              -4.2907712261830858E-03
               3.2741446573865567E-03
               3.1327697857184214E-03
              -3.8854779102471169E-03
              -3.6173782817021608E-03
              -6.5716121990003402E-04
              -7.3259482286298656E-03
               7.4632667677616308E-03
               7.6901473640766135E-04
              -1.7856634041763264E-03
              -1.5064594690471986E-03
               2.5554811266372377E-03
               2.5291541268485061E-03
               1.2744196293774058E-02
              -4.8745229598813247E-03
              -1.6396310201280778E-02
               7.8259374290596973E-03
              -4.4326310819286776E-03
              -4.9667658390082949E-03
              -1.1712700899156434E-03
              -1.2892086752592602E-03
              -6.4371073677121698E-03
               1.1260069476442459E-02
               1.7974427012610304E-03
              -4.3619278938080144E-03
              -1.7948309030654053E-03
               4.0364960180919261E-03
              -4.4795227807763712E-03
              -1.2503157511241645E-03
               5.1981771918180649E-03
              -1.3211656509845548E-02
               3.6061660108708828E-03
               6.0263516568020998E-03
              -8.7501903030224471E-03
               7.6057344595006219E-03
               6.8537850311566843E-03
               2.7274213812512821E-03
              -1.0923104607197297E-03
               9.1251377750701888E-03
              -8.0648206457220890E-03
               1.8768965843149327E-03
               1.7745019410925456E-03
               6.5090276207270771E-03
              -1.4403948653562767E-03
               2.5538969815383256E-04
              -4.4571292899215423E-03
               1.3897713056692605E-03
              -2.0707174095867687E-03
              -6.3475605071271020E-03
              -3.8386423847849129E-03
               8.3851551182854266E-03
              -2.2282135863579827E-03
              -3.1061949715394917E-03
               1.0026066657096057E-02
               3.2743476654099990E-02
               2.1536734320303841E-02
               1.3217091607132764E-02
              -1.6669068562959915E-04
               7.4625118657878787E-04
               8.6743939425288283E-03
               1.3482531305365551E-02
              -4.9198609740009518E-03
               1.1715958362753624E-03
               1.5481409207864352E-02
               1.6209530096725260E-02
               1.2660810672144996E-02
               7.9289290089468677E-04
              -1.0081277976561080E-03
              -3.7583290814860470E-03
               1.3762022971641617E-03
               1.2499619592304869E-03
               6.3302002605660130E-04
               6.9499587997419515E-03
               3.6663845117031486E-03
              -4.2479862468337528E-04
              -1.8014785326315066E-03
               7.4729327446646995E-03
               5.7906038516293999E-03
               2.3994505879942397E-03
               3.0092457128689976E-03
              -1.0156035816513160E-02
              -9.5008866357395075E-04
              -4.9713225729457007E-03
               4.8171474561430044E-03
              -2.3538784748814521E-03
              -4.0263022566500318E-03
              -2.7973611154244048E-03
              -4.6462662163177706E-03
               3.0904686512668962E-03
              -7.3097989632189223E-03
               1.1255473099414700E-03
               5.4581101842098049E-03
               6.4382044603143954E-03
              -3.0879648167583063E-03
               3.7961088224019177E-03
               7.0720708041096588E-03
               2.9024796736547729E-03
               5.2504320019456762E-04
              -6.5312340214013220E-03
               8.1775523372624986E-03
              -4.2492336992789835E-03
              -2.0248837422728407E-03
              -1.3611152102612305E-03
               8.4743119490938480E-04
              -2.5998125999248142E-03
               1.0797253518002774E-03
               4.2430067044577106E-03
               2.8273641517047947E-03
               8.6296830557091829E-03
              -4.1290119443549919E-03
               2.9878563806103784E-03
              -1.3421692590651305E-03
              -4.4127079262202386E-03
               3.5780799335451397E-03
               3.1983452674619714E-03
               2.6609869786462254E-03
              -2.6189881079444876E-03
               8.2413040283678494E-03
              -9.3799323537974467E-03
               8.6680179051401018E-03
              -4.0104842732926489E-03
               1.1887203191707819E-03
               6.2166099707854057E-03
               2.4972344772553095E-04
              -1.1436536814941195E-03
              -5.4576438080177958E-03
              -4.3359060202817143E-03
               7.9918080674893765E-03
               8.7508875804757063E-03
               1.2344384672352186E-03
               2.9108992786049982E-03
              -1.8226920624314178E-03
               6.0582493993299093E-03
              -1.1750728950173098E-02
               1.9537005026347965E-02
              -3.4752853691303763E-03
              -7.6259888162214387E-03
              -2.2279187973441366E-03
               1.4479685868566132E-03
               6.5479829397658736E-03
              -1.0920090163163336E-03
               1.2624946605814004E-03
               4.1213345381007325E-04
              -7.8590062793683479E-03
              -9.1283156630768206E-03
               9.7128117032263487E-03
              -5.7327609196829513E-03
              -2.7598996551224698E-03
               3.1510935444569251E-03
               1.0494499362397262E-03
               3.7711084009379148E-03
              -6.3980239046487249E-03
               5.2421449547442218E-04
               4.8896153058867959E-03
               4.7445959915461897E-03
               6.0375030668923847E-04
              -4.5646287135337751E-04
               3.0613663234325037E-03
               3.9646779171048059E-03
               7.3174338547862426E-03
              -2.9401571771374979E-03
               8.3128352175320056E-03
               8.6196911282446602E-03
               1.7942676590069753E-03
               2.9810386279586925E-03
               2.9785712834001429E-03
               1.6574878492615008E-03
               3.4233738352590520E-03
              -6.4466645545876037E-03
               3.2084126658303270E-03
               8.2132501953064568E-03
               2.0343960807981910E-03
               1.4609958949952336E-03
              -4.3797725252911167E-03
               5.1281468261376818E-03
               8.5488717082174079E-03
               4.2050972319386398E-03
               7.4933528171041244E-04
               2.8946182914819062E-03
               5.5870706154808299E-03
               4.3867119425781620E-03
              -1.2129580658124193E-02
              -2.9506560759938270E-03
              -2.4720033502463193E-03
              -2.6956939656342088E-04
               1.0425388364593256E-03
              -1.6239181645343079E-03
              -3.5045434596008055E-03
              -7.3330467094220924E-03
               1.3962232718968123E-02
               4.9487418314180590E-03
               6.4267970484479025E-03
               3.0687012772424084E-03
               3.0338915405547003E-04
               1.5646249966917397E-03
              -5.1243234308325338E-04
               1.8000303615095866E-03
              -3.4924090353997623E-03
              -2.0783600771574900E-03
               4.0705562662136071E-03
              -9.7713812068445246E-04
              -3.3370991723778703E-03
              -3.0491688475617258E-03
              -5.6502468203358555E-04
              -1.6821637467038002E-02
               5.6049941084683240E-03
               2.5455436438234698E-04
               1.1011964108348770E-02
               3.0325411555619818E-03
              -2.9493274146223060E-03
         &END THERMOSTAT_ENERGY
         &RNG_INIT
Wiener process for Thermostat # 1        1 F T T  -9.8236738167888460E-01         226733040.0        4248387519.0        1164353849.0        2758509449.0        3644127687.0        1764793484.0             12345.0             12345.0             12345.0             12345.0             12345.0             12345.0             12345.0             12345.0             12345.0             12345.0             12345.0             12345.0
Wiener process for Thermostat # 2        1 F T T  -1.4171306107827426E+00        1528154308.0        2775625301.0         197130159.0        1452211673.0        1835562137.0        1983376171.0        3692455944.0        1366884236.0        2968912127.0         335948734.0        4161675175.0         475798818.0        3692455944.0        1366884236.0        2968912127.0         335948734.0        4161675175.0         475798818.0
Wiener process for Thermostat # 3        1 F T T   8.6049543281786645E-01        2248570378.0        1724762616.0          52903713.0        3229622658.0        3199004837.0        4241126217.0        1015873554.0        1310354410.0        2249465273.0         994084013.0        2912484720.0        3876682925.0        1015873554.0        1310354410.0        2249465273.0         994084013.0        2912484720.0        3876682925.0
Wiener process for Thermostat # 4        1 F T T  -1.5460863137690717E+00         957380376.0         510326667.0        2247033635.0        2033071685.0        3054261466.0        3462352516.0        2338701263.0        1119171942.0        2570676563.0         317077452.0        3194180850.0         618832124.0        2338701263.0        1119171942.0        2570676563.0         317077452.0        3194180850.0         618832124.0
Wiener process for Thermostat # 5        1 F T T   1.5428690481661575E-01        4203301200.0         738999836.0        1485820986.0          20648636.0        2223680357.0        4294941489.0        1597262096.0        3906379055.0        3312112953.0        1016013135.0        4099474108.0         275305423.0        1597262096.0        3906379055.0        3312112953.0        1016013135.0        4099474108.0         275305423.0
Wiener process for Thermostat # 6        1 F T T   7.0411917217518150E-01        1265311014.0        3687607523.0        1792102642.0         142025920.0         459804801.0        1211121065.0          97147054.0        3131372450.0         829345164.0        3691032523.0        3006063034.0        4259826321.0          97147054.0        3131372450.0         829345164.0        3691032523.0        3006063034.0        4259826321.0
Wiener process for Thermostat # 7        1 F T T  -9.5744195640119531E-02        4040223344.0        4246262317.0         329086624.0          28777921.0        2946509694.0        1489700490.0         796079799.0        2105258207.0         955365076.0        2923159030.0        4116632677.0        3067683584.0         796079799.0        2105258207.0         955365076.0        2923159030.0        4116632677.0        3067683584.0
Wiener process for Thermostat # 8        1 F T T  -1.2413826789147817E-01         252045112.0        2848200345.0         154646410.0        1271924195.0        1873079261.0        3351978939.0        3281794178.0        2616230133.0        1457051261.0        2762791137.0        2480527362.0        2282316169.0        3281794178.0        2616230133.0        1457051261.0        2762791137.0        2480527362.0        2282316169.0
Wiener process for Thermostat # 9        1 F T T   1.0331244080464512E+00        3784506675.0        1914172684.0        3527875272.0        1610827989.0        3855196701.0        1117597481.0        3777646647.0        1837464056.0        4204654757.0         664239048.0        4190510072.0        2959195122.0        3777646647.0        1837464056.0        4204654757.0         664239048.0        4190510072.0        2959195122.0
Wiener process for Thermostat # 10       1 F T T   2.1466585360569199E-01        3057685686.0        2869029583.0         411221469.0        2821893460.0         322924656.0        1143227575.0        4215590817.0        3862461878.0        1087200967.0        1544910132.0         936383720.0        1611370123.0        4215590817.0        3862461878.0        1087200967.0        1544910132.0         936383720.0        1611370123.0
Wiener process for Thermostat # 11       1 F T T  -4.4132046785776799E-02        1554543736.0        2717576499.0        4135075403.0        2618383353.0         642871762.0         249586537.0        1683636369.0         362165168.0         814316280.0         869382050.0         980203903.0        2062101717.0        1683636369.0         362165168.0         814316280.0         869382050.0         980203903.0        2062101717.0
Wiener process for Thermostat # 12       1 F T T  -5.6161533877704317E-01        1770324141.0        3770017049.0         190859559.0         764828178.0        2918138424.0         736540625.0         272317999.0         166758548.0         310112982.0         201045826.0        1680231254.0         118290799.0         272317999.0         166758548.0         310112982.0         201045826.0        1680231254.0         118290799.0
Wiener process for Thermostat # 13       1 F T T   9.7554409384929153E-01        3627045108.0        1898589428.0        2752141753.0          85759421.0        2499273175.0        1137986601.0        2245755202.0        1652682525.0        2865544364.0         721509566.0         209733568.0         592362218.0        2245755202.0        1652682525.0        2865544364.0         721509566.0         209733568.0         592362218.0