 # Version information for this restart file 
 # current date 2024-12-10 16:38:46.264
 # current working dir /home/ndv3235/comp-lab-class-2024/Week12-IntroAIMD/Run_Proton
 # Program compiled at                              Sat Dec 12 18:27:15 EST 2020
 # Program compiled on                                         cs001.nyu.cluster
 # Program compiled for                                                nyu-intel
 # Source code revision number                                       git:8c64c6e
 &GLOBAL
   PRINT_LEVEL  LOW
   PROJECT_NAME proton_aimd_1ns_every0.5f
   RUN_TYPE  MD
   WALLTIME 21600
 &END GLOBAL
 &MOTION
   &GEO_OPT
     OPTIMIZER  BFGS
     MAX_ITER  100
     MAX_DR     3.0000000000000001E-03
     &BFGS
     &END BFGS
   &END GEO_OPT
   &MD
     ENSEMBLE  NVT
     STEPS  2000
     TIMESTEP     4.9999999999999994E-01
     STEP_START_VAL  500
     TIME_START_VAL     2.4999999999999795E+02
     ECONS_START_VAL    -1.1026316107807854E+03
     TEMPERATURE     3.0000000000000000E+02
     &THERMOSTAT
       TYPE  GLE
       REGION  MASSIVE
       &GLE
         NDIM  5
         A_SCALE     1.0000000000000000E+00
         A_LIST     1.8595758612559999E+02    2.7263853498399998E-01    1.1526100454610001E+01   -3.6414578262600003E+01 \
             2.3173375816020001E+02
         A_LIST    -2.7809524712060002E-01    8.5951591808710006E-05    7.2189048017650004E-01   -1.9844539343859999E-01 \
             4.2409257583420001E-01
         A_LIST    -1.4825808131210000E+01   -7.2189048017650004E-01    1.3590902121280000E+00    5.1498896280349999E+00 \
            -9.9949268450990001E+00
         A_LIST    -1.0372189126880000E+01    1.9844539343859999E-01   -5.1498896280349999E+00    2.6661910891169999E+01 \
             1.1507715495310000E+01
         A_LIST     2.1801346360420001E+02   -4.2409257583420001E-01    9.9949268450990001E+00   -1.1507715495310000E+01 \
             3.0958394565589998E+02
         &THERMOSTAT_ENERGY
              -1.8349665909699647E-03
               1.1271861685379285E-03
              -1.1223327161595498E-03
              -1.6998443262602509E-03
              -5.1970286857849083E-03
               6.2659836230935968E-03
              -4.0993626301139528E-03
              -1.3188381171933970E-03
               4.4259915112269980E-03
               2.4529392985474497E-03
               7.0861674677959972E-03
              -2.4295540670938856E-03
               3.4116487017702458E-03
              -1.3057857846255510E-03
              -2.5306722913045459E-03
              -2.1915325076482879E-03
               2.9550956775518723E-03
              -5.9562312919940593E-03
               3.6262906595910015E-03
              -1.9610938203881490E-03
               9.9303602938672687E-04
              -3.3359948590456893E-03
               1.0557675630848851E-03
               4.4178126079685472E-03
              -1.6725620518202751E-03
              -3.1285373287968940E-03
              -4.5866512828619636E-04
               6.2902734030621764E-03
               5.0711281573372622E-04
              -3.9036207954983162E-04
               2.9628771309848759E-02
               1.1942845428955864E-02
               1.2764196600082224E-02
               5.7730054114377410E-03
               1.3501620001131854E-02
               8.3485227283938319E-03
              -1.7636625003684728E-03
               3.8133381481377090E-04
               9.4641268457068745E-04
              -4.9473335844771628E-03
               1.6323553611838869E-03
              -8.7371222590175185E-04
               2.3149872609384016E-03
               2.6417004924894055E-03
              -5.4900966782719714E-03
               2.4768247731269499E-03
              -1.2876681007155226E-03
               5.4510863711648748E-03
              -1.4919191263052570E-03
              -8.8439397592690128E-04
              -4.7415434789933896E-04
              -7.5488764703429880E-03
              -1.5440087359920454E-03
               8.8173193272116923E-03
              -5.5086575363508770E-03
               3.8549100483776063E-04
               1.9838568256229464E-04
              -2.2517137215705319E-03
               9.7941791426071076E-04
               3.6888228578708373E-03
               1.3223839141795399E-03
               2.1339775266089448E-03
               4.7014013202506411E-03
               3.3636910691291280E-03
              -2.1567691801301450E-03
              -9.2335936434866117E-04
              -3.8985348254680380E-03
              -1.6022714523918323E-03
               4.9974058674305379E-03
              -8.5823057172380228E-04
              -5.8735128244087175E-04
               3.8380721383366324E-04
              -4.8007753419311003E-04
               1.3707699755147974E-03
              -7.0476797978959995E-04
              -4.1436419044119654E-03
               4.4034716425144583E-03
               3.9087018183142494E-03
               7.0165394904125305E-03
              -2.7029836297007364E-03
              -3.9048239112429743E-03
              -6.0773752429487391E-04
               1.8628861070736759E-03
              -2.6150836585608359E-03
               1.3984594747048574E-03
               1.0202544414216652E-03
              -5.3186024118006443E-03
              -9.1067372511935071E-04
               8.0979432213277691E-04
              -1.8250367444291394E-05
               2.7718968465734748E-03
              -5.3058694733527376E-03
              -1.5582909664726100E-03
              -1.8056755234733463E-03
              -5.1368402794915672E-03
               3.7452335238289062E-03
              -2.6709532940289819E-03
               3.2523055188892853E-03
               1.6367502150531578E-03
               1.4625016338894686E-03
              -2.4395708555758518E-04
              -4.3020310940233217E-03
              -2.9213317174812342E-03
              -3.1775727216996142E-03
               4.2523807435677335E-03
               5.3962396414916651E-03
               2.4406164405266877E-03
              -2.9306971162033450E-03
               3.5608314137520799E-03
              -8.9046762107680764E-04
               1.3676312109891136E-03
              -4.1340693045332409E-04
               1.7248756006473783E-03
               8.9941934859863123E-04
               2.1259114633241389E-03
               4.2072079264034584E-03
              -4.6171509621991663E-03
               1.5559809754993113E-03
              -4.1329689365668066E-03
              -8.5764152601594353E-05
              -2.0019627188400937E-03
               2.5674243530703312E-03
               6.9534861820669033E-03
               6.6914463574100289E-03
              -4.2323379322894436E-03
              -2.9901316990584440E-03
              -1.6157345881683469E-03
               1.8518245954097900E-03
               5.0914702929493001E-03
               3.3702897316927175E-03
              -2.1252614527153962E-03
               1.9525162293871747E-03
              -1.1871202383662771E-03
               3.2171148664897073E-03
              -4.5832365395776795E-03
               9.0086671687978010E-04
              -2.9823145888695224E-03
               3.6035444311234295E-04
               4.6336574074127326E-04
              -6.4813140608245513E-03
               7.6219861075534287E-03
               1.8457915847571453E-03
               1.4223914352010855E-03
              -8.4499467052473888E-04
              -2.2921426063896339E-03
              -3.1133418430718189E-03
               1.4262854705427377E-04
              -1.5407633296764716E-03
              -1.6437195387300671E-03
               5.8467320607037158E-03
               5.3730928299845185E-05
               8.2532159240673820E-04
               2.5218255790758514E-04
              -9.4793702641353872E-04
               4.2257586814707150E-04
              -2.0776014575996514E-03
               2.2267607654306455E-03
               2.1928791092045040E-03
              -2.8762285367394140E-03
               3.2329206024602031E-03
              -4.9454952971098734E-03
              -1.1896608550470205E-03
               4.4225348511847684E-04
               1.5766059465267663E-03
               8.2596020016390617E-03
               6.8017826554911502E-03
               6.0001820465348165E-03
              -6.3259667491578344E-03
              -4.0802489841254286E-03
               1.1695185289843031E-04
              -8.0003894995480014E-04
               3.6966705411498973E-05
              -6.9318602594647949E-04
               3.0710021743948503E-03
              -2.4360689490258440E-03
               2.1037669485763724E-03
               5.2086902602880517E-04
              -7.2681146299030392E-04
              -6.1180399068171555E-04
               3.1022647212831139E-03
              -1.8360807142868976E-03
               1.6585990117467355E-03
               3.0987633032012250E-03
              -6.5504648647105495E-03
               1.9300627349373076E-03
              -1.3418633154625774E-04
              -1.8690096431692792E-03
               6.3712533126503929E-03
              -2.3702288076712886E-03
              -1.2275542114552566E-03
               1.4552114088328506E-04
              -2.5747001915222417E-03
               5.0597811105199631E-03
              -2.1342322334292588E-03
               8.5174731918112438E-04
              -2.8053646558715119E-03
               2.9533905471009311E-03
              -1.8759051736567153E-04
               2.1407666055521884E-03
               2.7087332722171937E-04
               1.0050132105841646E-03
              -4.2746206204502882E-03
               3.3016501307976918E-03
              -1.6673938550207934E-03
              -4.2085929311119728E-03
               1.2096586628152369E-03
              -3.1075226107831794E-03
              -1.1991673271325633E-03
              -1.3236454213074406E-03
               4.0310485177216353E-03
              -1.2961955874111117E-03
               1.6566318165267639E-03
               3.6418759823096778E-03
              -5.2696678136689528E-05
               5.6491688175743038E-03
              -7.1462497439594638E-04
              -1.8398345956010924E-03
              -7.9321259455318442E-04
               1.0020376363794011E-03
              -3.7061145659063265E-03
               8.5431114341792951E-04
               9.9912857125464163E-04
               5.4310252036968219E-04
              -2.5792803080735690E-03
              -2.9722535676561788E-03
               1.3939994737152694E-03
               7.3252993290500042E-04
               3.9902500491114752E-03
              -6.7572538929976233E-03
               3.9731245958779327E-03
              -9.7230965604783257E-03
               2.2045406738138212E-03
               8.6577995271154545E-03
              -3.8209685460276199E-03
              -7.9727819896946331E-04
              -1.7257497045168266E-03
              -1.6794001464498767E-03
               1.6561233977984077E-03
               8.3953635948745336E-04
               1.0784266360821762E-03
               5.7929116302116895E-04
              -2.7006018734484151E-03
               6.2487541729159338E-03
               3.4447932195598705E-03
              -3.7794594183023860E-03
               4.6554935576013077E-04
              -1.3185765003451597E-03
               1.3132249365581294E-03
               1.4873962138683859E-03
              -4.5260458677937069E-03
               2.8832995420953549E-03
               9.6609783144831749E-04
              -3.4965150602266452E-03
               5.6167914180984776E-04
              -2.0746355328695523E-03
              -6.8668130284873109E-03
               6.4129751106323058E-03
              -1.3169610378112556E-03
              -1.6185961771529034E-03
              -6.7726173476636139E-03
               7.4023174276423419E-03
               3.3737812135554998E-03
               2.6016867188789284E-03
               6.1005244444333473E-03
               2.2675111897247141E-03
              -6.6321435708834395E-03
              -2.1040160614652931E-03
               7.6211181244559246E-04
              -3.3252772396787874E-03
               1.8299990601219260E-03
              -1.3923233022488000E-03
              -1.5990615821304499E-03
               2.8924424619248970E-03
               3.8327373709390587E-03
               2.1657634191466850E-03
               1.3688862354378721E-04
              -4.8063561557972409E-03
               3.4236694557630747E-03
              -6.9458040137407306E-03
               2.3187323531031626E-03
               1.0115616865862321E-04
               2.9371169038651893E-03
               1.4642465505444739E-03
              -1.7030456529591076E-03
              -5.1519281660877105E-03
               2.3419950826163590E-03
               7.6182499641795902E-04
              -3.6728463391858929E-03
              -2.5082862320655371E-03
               2.1282602828866797E-03
              -1.3840815251454303E-04
               1.5596087156054005E-03
               3.4961104498298038E-03
              -1.6929669990745986E-03
              -5.5211190365952751E-04
               2.1729395742232966E-03
              -7.2509625906112445E-03
              -1.8959972010150533E-03
              -8.4961002728705976E-04
              -1.3345226123887496E-03
              -6.4895666176672685E-03
               8.1114842251741176E-03
               7.7974867740840427E-03
               2.3976353019599801E-04
               5.5331086505726228E-03
              -2.0686468806077061E-03
              -2.5939313222871898E-03
               4.8079215672989606E-04
               2.5862743328593516E-03
               3.0975717652480541E-03
               1.9357902256705293E-03
              -1.0601463913794455E-02
               4.7223760091191632E-03
               3.8753809703522056E-03
               2.1958531674775611E-03
               7.9360439916278773E-04
               4.7388698651801270E-04
               2.8266651296968799E-03
               1.5276753767501875E-03
              -1.3497789812862006E-03
               9.4510468624721643E-03
              -1.4636317070765724E-03
              -8.0654999244634887E-03
               5.7579124721381962E-03
               5.0436671108101462E-04
               2.0961984701565219E-03
               3.6112125181308286E-04
               2.6520896340184231E-03
              -4.8662799961043262E-04
              -3.3906300816284570E-03
              -3.8106603680782773E-04
              -9.1677056122522835E-03
               7.2293907136089302E-03
               1.4891282647757698E-04
               1.2912978980387708E-03
              -1.0519739600728629E-03
               7.4055405494907701E-03
               1.6828637598123532E-03
              -3.9937760005293119E-03
              -2.5699939271371037E-03
              -8.0988864104538565E-04
               6.7774351019038513E-04
               1.9932673199154474E-03
               1.0552102990652910E-04
              -2.5498981923534631E-03
              -3.2650233491434196E-03
               4.2308403375796349E-03
              -2.2339381835293345E-03
              -4.6819623008679161E-03
              -3.1314205645271527E-03
               4.2059340771896363E-03
               6.6435261234050582E-03
              -6.9200615297217829E-03
               1.3264167943955445E-03
              -4.4390262116657773E-03
               5.6939188816657041E-03
               9.3627420811543251E-04
              -5.9972257037233046E-03
               4.8131346769558856E-04
               9.6609419048773737E-03
              -1.5572069214067098E-03
               3.3086294626545913E-05
              -3.9096503290140076E-03
              -8.6091875308035668E-03
               1.3646889191983932E-03
               1.1876698685000979E-02
               2.6412633456805320E-03
              -1.2522629541476516E-03
              -2.5550112606489172E-03
              -9.2222279843717184E-04
               1.8693717486170588E-03
              -7.7302664874376922E-04
              -1.0082559905201190E-02
              -1.3492208860479999E-03
               4.9028779415581751E-03
              -3.2292056382514367E-03
               2.2186878327926244E-03
               4.6435388763542617E-03
              -2.3750016748798684E-03
              -2.1446975341404702E-03
              -3.1356892888243372E-04
               4.3762118589686667E-03
               8.2021200267232593E-03
              -6.9632706561125401E-04
              -1.1580047566443343E-02
               6.8268535926216730E-03
              -9.6754839084089354E-04
              -4.9725888668526088E-03
               3.1287915735459616E-04
              -9.3044355735192371E-04
               9.9592841033467735E-04
               4.3632182939903327E-04
               2.2790293264102397E-03
               5.5833804825251906E-03
              -5.2930119614280216E-03
              -1.5252571872030399E-03
              -2.9784306320594172E-03
               1.8098088119414854E-03
               2.4163766757257608E-04
              -6.8307824247908246E-03
              -3.3300460493669988E-04
               6.2600427734198529E-03
              -8.5855691706985555E-03
               2.3289197519354432E-03
               4.4544004282198691E-03
              -2.5390316677123114E-04
              -2.3635379491817924E-03
               6.0514720483777389E-03
              -7.2970535682230376E-03
               1.8716436766270169E-03
               2.8807826067169741E-03
              -1.8513895683467771E-03
               2.1594268966628463E-03
               2.4460975181747682E-03
              -4.0265939733278890E-03
              -5.7029135948423980E-04
               4.5414117851065930E-04
               8.5751644234829385E-04
               1.3567822418370675E-03
               1.3080381883490911E-02
              -3.1554883025972234E-03
               2.9244290291423884E-04
               5.9758089807002484E-03
               3.3154743718750664E-02
               1.8609046214333697E-02
               8.5363062375084561E-03
               8.8534832763406332E-04
               7.3350893874400930E-04
               6.0498347172256162E-03
               1.0204322030065632E-02
              -3.3144717916763467E-03
               9.2233400261353769E-03
               1.6534611828079721E-02
               2.0439825396398607E-02
               6.1678374496675330E-03
               3.0814540779528737E-03
               2.4147337443481695E-03
              -1.3235674125737997E-03
               4.7889846849881478E-04
              -1.0091701496844861E-03
               1.3468288593374376E-03
               4.6918303133868305E-03
              -7.6567539129024440E-04
               2.3128198686438728E-03
              -2.1784726100447841E-04
               7.0274256257371942E-03
               4.3411149012123973E-03
              -1.4376211352615247E-03
              -1.6901801612969820E-03
              -2.4952303489127656E-03
              -9.8336647361443592E-04
              -5.6071851031090090E-03
               7.2070192616128879E-03
              -7.1503508775789095E-04
               3.1674417753214468E-04
               6.6126754877379615E-04
               1.8751646142854325E-03
               2.6443353443087023E-04
              -3.2643778211637426E-03
               2.9156357734931469E-03
               3.4467864838351469E-04
               8.0694344042536443E-04
              -3.6563669963601700E-03
               5.0806856145698179E-04
               6.6700215613207927E-03
               3.9729570076975644E-04
              -1.3074185435067171E-03
              -2.9743654434444579E-03
               6.0038819588433198E-03
               2.0781024947556584E-03
              -5.4713104039100565E-03
              -9.0135152387538372E-04
               3.4597352760703743E-03
              -1.0665445828675166E-03
              -2.7768073802099274E-03
               5.2049965934097215E-03
               5.2733328004184524E-03
               1.7690801873228399E-03
              -2.5328476608124399E-03
               5.0806196299834237E-03
               3.6889425433584300E-04
              -1.1119648038666529E-03
               2.9090076028539138E-03
               1.5312765332886145E-03
              -1.0864890370012768E-03
              -9.7084217946314874E-04
               1.6829818778126299E-03
              -7.2200519353219569E-03
               1.0103338046758413E-03
              -5.6906010028930434E-04
              -7.6890783611447333E-04
               5.3706610031058174E-03
              -2.2092605313561672E-03
              -2.8427069457813876E-03
              -6.6903345112668113E-04
              -5.7566459008403922E-03
               6.9062737425012368E-03
               8.2580781238060577E-03
               4.6342747414098214E-03
               5.7536449380975897E-03
              -1.0909935410639208E-03
              -1.4576465490130522E-03
              -1.0378740183727909E-02
               6.6147261089589517E-03
              -3.8491192236679793E-03
              -5.7109240328696263E-03
               4.9533260569879596E-03
              -1.0367921713944754E-03
               8.2020383483126557E-04
               6.2280047034746222E-05
               3.7523723780589430E-03
               1.1154037247966982E-03
              -4.0715091273715405E-03
              -2.7122267977873478E-03
               1.6129310815029953E-03
               1.8311608942752449E-03
              -6.7156008506615763E-03
               3.8463442921737377E-03
               4.9234863416081952E-03
              -1.7641763367073058E-03
              -1.9783670058297433E-03
              -3.5275256980639171E-03
               2.9427137430357957E-03
              -1.2012844089325416E-03
              -2.4499285564098948E-03
              -1.5823710457937904E-03
               3.3244715400419303E-03
               3.8225280793284808E-03
               1.6353996905680186E-02
               4.5082364810798900E-03
              -3.2580977762344671E-03
               5.4842815891455333E-03
               6.4049610342125727E-03
              -3.5108293271152676E-03
               3.3631687036793177E-03
               8.9149342776422696E-04
               4.9206016449386428E-04
              -6.9727070827126428E-04
               3.3583116430666205E-03
              -1.0289658717144714E-03
               2.9067456251181210E-03
              -6.2183148737473301E-04
              -2.8231221760141572E-03
               4.2398214365536799E-03
               4.0109049810540705E-03
               4.7264486420955704E-04
              -1.7048057240943014E-03
               3.3715022770503898E-03
               3.3690541529162545E-03
               3.5407851939924010E-03
              -3.9389916526703893E-03
              -3.7896282762169410E-03
              -2.5703550213978087E-03
              -1.2133162386574116E-03
              -1.3034242102578301E-03
              -5.6065785324818356E-03
               2.7412427674093246E-04
               7.5334862273890660E-04
               8.7969064269363371E-03
               1.9096471754617940E-03
               6.9814777529088679E-03
               2.6123496930004395E-03
              -5.7953825157019013E-04
               1.2517918064702854E-03
              -1.0248376132038065E-03
               5.3896444877030419E-03
              -7.6324563689107649E-03
              -4.5176416018034397E-03
               8.4354781007735021E-03
              -5.8296354678230968E-03
               1.8336024474420300E-03
              -4.5069374153906905E-03
              -3.0300188929892032E-03
              -6.9184543644323438E-03
              -1.6672201205542767E-03
              -4.8597131610543705E-04
               2.3116397736871993E-03
               4.6363628550517349E-03
              -1.1018220331812606E-03
         &END THERMOSTAT_ENERGY
         &RNG_INIT
Wiener process for Thermostat # 1        1 F T T  -1.5505429657892764E+00         661802595.0        2026459976.0        3136775027.0        3268219721.0        1056216878.0        3744216088.0             12345.0             12345.0             12345.0             12345.0             12345.0             12345.0             12345.0             12345.0             12345.0             12345.0             12345.0             12345.0
Wiener process for Thermostat # 2        1 F T T   1.5766939834860993E-01        2521559082.0        1979391111.0        3972826820.0        2839528192.0        3960449033.0        3051881342.0        3692455944.0        1366884236.0        2968912127.0         335948734.0        4161675175.0         475798818.0        3692455944.0        1366884236.0        2968912127.0         335948734.0        4161675175.0         475798818.0
Wiener process for Thermostat # 3        1 F T T  -1.6802103653762466E+00        2464096834.0        3454226368.0         668358963.0        3607867155.0        2139338144.0        1695442074.0        1015873554.0        1310354410.0        2249465273.0         994084013.0        2912484720.0        3876682925.0        1015873554.0        1310354410.0        2249465273.0         994084013.0        2912484720.0        3876682925.0
Wiener process for Thermostat # 4        1 F T T  -9.2120442907176847E-01        3007810664.0         626544053.0           5688727.0        2019501767.0        4050809287.0        2188826537.0        2338701263.0        1119171942.0        2570676563.0         317077452.0        3194180850.0         618832124.0        2338701263.0        1119171942.0        2570676563.0         317077452.0        3194180850.0         618832124.0
Wiener process for Thermostat # 5        1 F T T   1.9586792436148486E+00        3119398129.0        2238966874.0        1731687009.0        1729823850.0        3912388439.0         182524877.0        1597262096.0        3906379055.0        3312112953.0        1016013135.0        4099474108.0         275305423.0        1597262096.0        3906379055.0        3312112953.0        1016013135.0        4099474108.0         275305423.0
Wiener process for Thermostat # 6        1 F T T  -2.2012851380256623E-01         527820745.0        2447393615.0         338698828.0         653439858.0         976211817.0        3944196308.0          97147054.0        3131372450.0         829345164.0        3691032523.0        3006063034.0        4259826321.0          97147054.0        3131372450.0         829345164.0        3691032523.0        3006063034.0        4259826321.0
Wiener process for Thermostat # 7        1 F T T  -1.2191095662093037E-02         167278661.0        2992638024.0        1197931920.0         124710794.0         889033703.0        2194094787.0         796079799.0        2105258207.0         955365076.0        2923159030.0        4116632677.0        3067683584.0         796079799.0        2105258207.0         955365076.0        2923159030.0        4116632677.0        3067683584.0
Wiener process for Thermostat # 8        1 F T T  -2.6373530393371375E-01        2923147749.0        3809475671.0         892364519.0        3114385888.0        3523415917.0        3402922821.0        3281794178.0        2616230133.0        1457051261.0        2762791137.0        2480527362.0        2282316169.0        3281794178.0        2616230133.0        1457051261.0        2762791137.0        2480527362.0        2282316169.0
Wiener process for Thermostat # 9        1 F T T  -1.2388913960989989E+00         276694386.0        3384434371.0        2194062143.0        3864498526.0        2498625561.0        4174179731.0        3777646647.0        1837464056.0        4204654757.0         664239048.0        4190510072.0        2959195122.0        3777646647.0        1837464056.0        4204654757.0         664239048.0        4190510072.0        2959195122.0
Wiener process for Thermostat # 10       1 F T T  -6.9271884074884071E-01         298842605.0        4183294382.0        3769908432.0        1623977651.0        3452521187.0         349927101.0        4215590817.0        3862461878.0        1087200967.0        1544910132.0         936383720.0        1611370123.0        4215590817.0        3862461878.0        1087200967.0        1544910132.0         936383720.0        1611370123.0
Wiener process for Thermostat # 11       1 F T T  -3.9199517781213300E-01        1183014876.0        2469777470.0        2706060047.0        1374668043.0         490283634.0         131761905.0        1683636369.0         362165168.0         814316280.0         869382050.0         980203903.0        2062101717.0        1683636369.0         362165168.0         814316280.0         869382050.0         980203903.0        2062101717.0
Wiener process for Thermostat # 12       1 F T T   1.2248374085476998E+00         744312290.0        1838623065.0        1895433531.0        2930723882.0        3034111406.0        1223209339.0         272317999.0         166758548.0         310112982.0         201045826.0        1680231254.0         118290799.0         272317999.0         166758548.0         310112982.0         201045826.0        1680231254.0         118290799.0
Wiener process for Thermostat # 13       1 F T T   1.6053528300026945E-02         341235087.0         365462780.0         607175623.0        3292057964.0        1611524565.0         256574977.0        2245755202.0        1652682525.0        2865544364.0         721509566.0         209733568.0         592362218.0        2245755202.0        1652682525.0        2865544364.0         721509566.0         209733568.0         592362218.0