 # Version information for this restart file 
 # current date 2024-12-10 19:57:27.882
 # current working dir /home/ndv3235/comp-lab-class-2024/Week12-IntroAIMD/Run_Proton
 # Program compiled at                              Sat Dec 12 18:27:15 EST 2020
 # Program compiled on                                         cs001.nyu.cluster
 # Program compiled for                                                nyu-intel
 # Source code revision number                                       git:8c64c6e
 &GLOBAL
   PRINT_LEVEL  LOW
   PROJECT_NAME proton_aimd_1ns_every0.5f
   RUN_TYPE  MD
   WALLTIME 21600
 &END GLOBAL
 &MOTION
   &GEO_OPT
     OPTIMIZER  BFGS
     MAX_ITER  100
     MAX_DR     3.0000000000000001E-03
     &BFGS
     &END BFGS
   &END GEO_OPT
   &MD
     ENSEMBLE  NVT
     STEPS  2000
     TIMESTEP     4.9999999999999994E-01
     STEP_START_VAL  1998
     TIME_START_VAL     9.9899999999998238E+02
     ECONS_START_VAL    -1.1026316107807854E+03
     TEMPERATURE     3.0000000000000000E+02
     &THERMOSTAT
       TYPE  GLE
       REGION  MASSIVE
       &GLE
         NDIM  5
         A_SCALE     1.0000000000000000E+00
         A_LIST     1.8595758612559999E+02    2.7263853498399998E-01    1.1526100454610001E+01   -3.6414578262600003E+01 \
             2.3173375816020001E+02
         A_LIST    -2.7809524712060002E-01    8.5951591808710006E-05    7.2189048017650004E-01   -1.9844539343859999E-01 \
             4.2409257583420001E-01
         A_LIST    -1.4825808131210000E+01   -7.2189048017650004E-01    1.3590902121280000E+00    5.1498896280349999E+00 \
            -9.9949268450990001E+00
         A_LIST    -1.0372189126880000E+01    1.9844539343859999E-01   -5.1498896280349999E+00    2.6661910891169999E+01 \
             1.1507715495310000E+01
         A_LIST     2.1801346360420001E+02   -4.2409257583420001E-01    9.9949268450990001E+00   -1.1507715495310000E+01 \
             3.0958394565589998E+02
         &THERMOSTAT_ENERGY
               5.8187548802132814E-04
               1.1330850845691518E-03
              -3.9546987501987083E-03
               4.0286069659434326E-03
              -1.2912865246088822E-02
               6.6524823687124177E-03
              -7.8828434852528837E-04
              -5.3039274977788381E-03
               8.1199617284451880E-03
               3.5304820473406485E-03
               1.0401897697886216E-02
               3.4214912581617980E-03
              -1.1836922890417573E-02
              -5.1064865352824992E-03
              -4.6602017735502654E-04
              -1.9125013480319475E-03
               9.6112011700996685E-03
              -8.3338604315642221E-03
               5.0393620964358653E-04
              -3.6623389910594734E-03
               6.1356105962703941E-04
               6.7507712776608934E-03
              -1.2493600453058799E-02
              -2.9711959073624528E-03
              -1.0246024732824012E-03
              -5.6293507646716454E-03
               1.0923389945369281E-02
              -8.2426381579212688E-04
               4.8422192284282468E-03
               2.3418985733244047E-03
               3.2312483576487028E-02
               8.9615931155239709E-03
               8.2913589816606334E-03
               9.6410121299432550E-03
               6.1027632889998568E-03
               7.9082027927355469E-03
              -4.6901212670504826E-03
              -3.5040567186236872E-03
              -3.8195829765438863E-03
               1.7060473556681367E-03
               5.1438258446684770E-03
              -6.9516656700805562E-03
               4.5613756328539059E-03
               2.4921255534233696E-03
               2.9453609133575235E-03
               3.6131385148020778E-03
              -4.2090217849384713E-03
               1.1663870652384176E-02
               2.7914947406141697E-03
               3.4507023161733908E-03
               3.9294371944185030E-03
              -5.4888698004103868E-03
              -1.1695811251396892E-03
               5.4553782823598008E-03
              -9.2984195923892128E-03
              -2.3076644666246873E-03
              -4.7852532609096103E-04
              -6.6570569944491556E-03
               6.3996306025108501E-03
               8.4400271496686552E-03
              -2.9060561222937140E-03
              -8.5808195506330677E-04
               1.2022821788604731E-02
              -4.6425432077221006E-03
              -3.2932399963265719E-03
               4.3803711957988746E-03
              -6.9124560437224770E-03
               4.0091179776926555E-03
               1.2497473886665359E-02
              -1.8551228222055856E-03
              -9.2500106300731719E-03
               5.9799082948966253E-03
               3.0860494677136766E-04
               3.8721808799096107E-03
               6.9979657225416074E-03
              -1.6008798748250088E-02
               1.3453219647143123E-02
               7.8957818390965467E-03
               3.9018902105216685E-03
              -7.2801729075609219E-03
              -2.1544699131364857E-03
              -4.5590822454041249E-03
               2.5774067090331464E-03
               7.2857007477285804E-04
               4.0903935390281983E-03
               8.6430601158520547E-03
              -8.6282243545127112E-03
              -7.8754799379651859E-03
              -3.3320053800343112E-03
               2.4610729166384907E-03
               2.3088762239796882E-05
              -9.6595679230993547E-03
               5.3645144057919711E-04
              -8.4413276488223155E-03
              -1.9931282672816138E-03
              -4.5766267088133937E-04
               1.6580607967422185E-03
               2.6662760008775159E-03
               9.5849889067760978E-03
               5.9473890554199418E-04
              -4.3391176812798788E-03
              -6.5547452985870759E-03
               8.5563352884283732E-05
              -7.3298504159786905E-03
               5.4297822080814134E-03
               1.4654401660745608E-02
               3.5658206793202744E-03
              -6.2709908770661824E-03
               8.3550523635550680E-03
              -6.6353369971411200E-03
               2.4411717635743741E-03
               9.7739066238186848E-03
              -5.1090001490119588E-03
               3.8490609935887404E-03
               6.1675089729467999E-03
              -1.8493652926312532E-03
              -3.4899357741623014E-04
               7.2228504866884665E-04
               5.0662093986435716E-03
               5.1139905535504992E-05
              -3.9571582950776547E-03
               1.1510984033707106E-04
               1.4567041527087408E-02
               7.5128878791459837E-03
              -4.0832803644496188E-03
              -1.4422100487094438E-02
               6.6716169879773388E-03
               2.2630205463546552E-03
              -7.8248958703103189E-04
               6.8125821951706784E-03
              -7.4064182000594791E-03
               3.0399899761472020E-03
              -4.2341398192867179E-03
               4.2828831205521355E-03
              -1.3772307773521511E-03
               2.4023474927197066E-03
               3.3112041666323155E-04
              -1.0385814160393414E-02
              -4.1516946826181912E-03
              -5.8727628878337242E-03
              -3.2109903732230496E-03
               9.5758591932508623E-03
               1.0160640035347977E-02
              -3.4666552732248840E-03
              -5.4173836719197616E-03
              -5.7348625899112434E-03
               7.8582750664121261E-04
               5.3479530490889021E-03
              -4.0685878731665220E-03
              -1.7477340846970978E-03
              -1.1819196185730487E-02
               3.7256861769590982E-03
               6.5518972323615177E-04
              -1.4234876509005914E-03
               1.0688934086825471E-02
              -1.1053517818154883E-03
               7.7824936855372395E-03
               3.9202415012513517E-03
              -1.0544937431370954E-02
              -6.3098377701641567E-05
              -7.2168180977699595E-03
               3.9807995430253696E-03
               2.9274229315532385E-03
               2.9135764960067697E-04
               1.2373246377910395E-02
               1.7692895275619944E-02
               7.8485602538136776E-03
              -2.6329999223665003E-02
              -9.2596513206479665E-04
              -6.6916395886784370E-04
              -3.9213169501998262E-03
              -3.7413985994069290E-03
              -1.2231179648843485E-03
              -3.4733155940980752E-03
              -3.7998039689149197E-03
               3.3406432189462729E-03
              -4.2281134656921371E-03
              -2.5366363324479642E-03
              -6.6721365147013982E-04
               9.9169659485488313E-03
              -1.7082187645355296E-03
              -9.1255591419639351E-04
               7.9678304504168553E-03
              -2.5746219525712634E-02
               1.4107956124007797E-02
               1.3166467965487539E-03
              -1.3917497090478997E-03
              -5.1171431569048261E-03
              -3.4828795360667981E-03
               5.7315441386487800E-04
               7.1930143288688074E-04
              -1.6334895271944507E-04
              -9.7891262469486651E-03
               1.6316536068780006E-02
               1.1708575880880448E-03
              -9.8654168511050615E-03
               1.2843646085089015E-03
               3.7941195003817715E-03
               1.7422664143196271E-03
               1.3644906307202441E-03
               1.8026886766923786E-03
              -1.1086447040529147E-02
               1.5394020938287729E-03
              -4.0600659285295604E-03
              -4.0352668874876884E-03
               7.0803422642443780E-03
              -1.5943383104614366E-03
              -7.8274207377174556E-04
               7.3503586269558813E-04
               1.3779510007407671E-03
               5.7895117302247502E-03
              -9.0946067781558348E-03
               7.3113741709233916E-03
               4.4536945263044863E-03
               1.6527670033119777E-03
              -3.0329627253735123E-03
              -1.2694744089203212E-02
               2.8436816132318943E-03
               3.8868212311489953E-03
              -4.2408696729838817E-03
               4.4248009311867826E-03
              -8.3216090157811531E-03
               1.1501037327646113E-03
               4.6934065281442166E-04
               8.5362307429152212E-04
              -3.4584068407984589E-03
               1.5649730971399017E-03
               4.4266683001080642E-03
              -4.4905788168159702E-03
              -1.7046355752012093E-03
              -7.7536501168868682E-03
               7.5878273698661440E-05
               7.7335565818063721E-03
              -3.4273724646144829E-03
               3.0695703211829663E-03
              -7.2107726870900175E-04
              -3.1592003092109685E-03
               4.0474255357274298E-03
               5.8550442078550858E-03
               3.1546595016679422E-03
               3.6088481209997302E-03
              -8.5512087285727952E-03
               3.3327105739223430E-04
              -1.8771977732091718E-03
               4.0456768896459981E-03
               1.6902329827488379E-03
               1.1020975831123698E-03
              -3.2062311683042372E-04
              -1.4916380482879590E-04
              -4.4912847719950832E-03
               3.5386233245211936E-03
              -7.0045921150230011E-03
              -6.8808834491134434E-03
              -4.6513627880642354E-03
               3.0109422691399104E-03
              -2.5035726053419093E-03
               2.1830075987638534E-02
              -1.0238923116583075E-02
               1.2253138643485749E-02
              -2.5984219602278810E-02
               2.7688242997706149E-02
               8.4172725805448500E-03
               4.5215490964265045E-03
               8.2701654785517185E-03
               8.5012437195723881E-03
              -1.1676406633611263E-02
               6.0447522546827372E-03
              -6.8912584149817468E-03
              -3.7978284213394165E-03
               1.4543688626086718E-02
               1.1992470507075001E-03
              -5.1295068963216357E-03
               8.5960538203624665E-04
               1.2690960802965758E-02
               2.3824108948704804E-03
               2.2878235328017678E-04
              -2.4262228533149788E-02
               1.6385516890594087E-02
              -5.2757437335561276E-03
               4.0927055487863743E-03
              -4.3257042484673488E-03
               2.1162187940612638E-03
              -4.0869038194116421E-03
              -5.1281199422697184E-03
               2.9570208318121607E-03
              -2.4945484887856370E-03
               5.8004892046220535E-03
              -9.0118478012679616E-03
              -6.7049184043699132E-03
              -3.7142943863104176E-03
              -4.6620506818220757E-04
               7.4366954866388257E-03
               4.1902684785100151E-04
              -2.2990955820602105E-03
               1.9773704350501310E-05
               1.3823160714579433E-02
              -3.8704119464329711E-04
               4.1700051018722379E-05
              -6.5398613774699330E-03
              -3.3150879949341992E-03
              -1.4691805010810650E-02
               6.2905044471207022E-03
               2.0281720046221655E-02
              -4.9139378097000537E-03
               1.3293156992536732E-02
              -1.0004939662550756E-02
              -2.5161265777206387E-03
               2.7717568138705259E-03
               1.9762910371561573E-03
               1.0795194760965635E-02
              -4.2990050254675394E-05
              -1.5894682034245940E-02
              -4.9074055124523602E-03
               2.0171829131317934E-02
              -5.7056674944644730E-03
               6.3511826381983808E-03
               9.0424627700842024E-03
              -3.4458537042008171E-04
              -3.5496795235939898E-03
              -1.4504853326698135E-04
               1.2588299161120182E-02
              -1.6519076358277356E-02
              -7.8562405779633426E-03
               1.3284187576966451E-02
              -1.6995388161345150E-03
               4.3329250651238981E-03
              -1.6439187686960693E-03
               1.9592518243432442E-03
              -6.2863235206171396E-03
               9.2457754939255450E-05
              -1.9853834602356732E-03
              -8.1440286813698644E-03
               1.3886511093242134E-03
              -3.9437378688103094E-03
               1.2424618890478922E-03
               2.8210826554254356E-03
               1.0154830581961741E-02
               1.7226115911806855E-03
              -1.1229467865734557E-02
               1.0956841683006388E-02
              -6.5252297269735686E-03
               8.0798030153925102E-03
               2.6412004267432213E-03
              -2.7429092611270492E-03
              -4.0271812999044280E-03
               2.1406931159291052E-03
               1.8721227565811713E-03
              -7.5467894224572705E-03
              -5.3009857223434344E-03
               2.3964976739271871E-03
               5.9687980265184046E-03
               9.7525520316131351E-03
              -3.3372843503679346E-03
              -4.6760009594567671E-03
              -1.2604337057757457E-02
               9.6410914599472965E-03
               5.1163263466942402E-03
              -1.4876101080541004E-02
              -3.8125624420455879E-03
               1.1688665138668746E-02
              -5.8914113975515672E-03
              -8.7490473451602539E-03
              -1.3473851730379693E-02
               2.7021317367896926E-04
              -7.0132491610394665E-03
               1.7765608942028454E-02
               5.3097166063853438E-03
              -4.3694693414931228E-03
              -2.0431030848281633E-03
              -9.5660520816012763E-03
               3.8907033556612376E-03
              -2.3165143378288901E-04
               1.7699902078661988E-03
               2.3099613766673797E-03
              -1.6292610115631987E-03
               1.8825163932673556E-03
               4.9575583444918447E-03
              -1.5021833860105917E-02
               1.9127850458149256E-03
               2.1896837027383112E-04
               5.6962018271920758E-03
               4.4362755748666291E-03
               1.5688458798041104E-02
              -1.7174762324193335E-02
              -1.8668858576463606E-02
               4.5652086579953503E-03
               6.4795933300886670E-03
              -7.3228722184777049E-03
               1.3586286592781561E-03
               1.1632562044328755E-03
              -7.3006976156799828E-03
               1.6080582396100634E-02
              -1.8198642336172402E-03
              -6.7359984195010693E-03
              -9.4528214024800069E-04
               8.9875522307427940E-03
              -1.2030270414197516E-02
               1.5624176379007047E-03
               2.9434320984745663E-03
              -3.1790151026998899E-02
               1.4827682011864884E-02
               2.7660265093354380E-03
              -9.0888626648294845E-03
               3.0804836027721124E-03
               1.6845896199829246E-02
              -4.2332218489845230E-03
               4.4156839564831350E-03
               1.0373521297055809E-02
              -7.5704346230947607E-03
              -5.1011011642238769E-03
               5.6396881372797305E-03
               3.5359811843788248E-03
               1.7177548898647469E-03
               5.8193730534868869E-03
              -4.0736322649203380E-03
               1.4896862092367517E-03
              -3.3562245478380454E-03
              -7.3889048031727349E-03
               3.3506537184879981E-03
              -4.7599139809591821E-03
              -3.7154914075789177E-03
              -3.5276529824530608E-03
               4.8897871476552158E-03
               3.5335021318388039E-02
               3.1941002138372449E-02
               8.3177109243860181E-03
              -4.0169730842700986E-04
               4.4685904234108825E-03
               7.1653663382709697E-03
               1.3414556953562935E-02
              -7.3783869289410168E-04
              -9.5783233626602696E-03
               1.2510235166421149E-02
               2.2262960650710838E-02
               1.1727024426643083E-02
               6.9008893096770716E-04
              -4.1909802246237974E-03
              -2.8334001526528446E-03
               5.9224373821910948E-03
               3.3258419305668440E-03
              -1.4821450523692365E-02
               2.2667648489591680E-04
               3.5063318254357949E-03
               3.1807640859968659E-03
               2.0561681119934849E-03
               5.4375892331089987E-03
               3.2826493105252291E-03
               1.3557643765511291E-02
               6.3506189563758255E-03
              -8.4755896829902134E-03
              -1.0864580911804480E-03
              -7.6889789327378288E-03
               3.9336208615849532E-03
              -1.7403394826610949E-04
              -2.5712576651067596E-03
              -3.2033732935625105E-03
              -1.7634759862907537E-02
              -9.7693915002757814E-03
              -4.4226332294784029E-03
               6.6297419691351070E-03
               1.4575655826391757E-02
               8.7258859313780988E-03
               3.6436588833756807E-05
               3.7502633958077193E-03
              -4.4733374072172794E-05
              -9.6546942455367728E-05
              -6.4133701447325765E-03
              -4.7899599694751810E-04
               1.7587511797666468E-02
              -1.1970154741183478E-02
              -3.2626908435736198E-03
              -7.9360874820502223E-03
               1.8853800519950694E-03
              -7.8795766343712917E-04
               3.2622783623466526E-03
               1.4167262462868589E-02
               3.7041524830728092E-03
               1.0485101503336033E-02
              -1.1225411182262949E-02
              -2.0407300271484720E-03
              -3.5205300654010370E-03
              -4.7501980275431299E-03
               3.5902253704683650E-03
               4.8162865278672702E-04
               1.1127557356892907E-03
              -5.4261249819211217E-05
               3.0610748740317537E-03
              -9.1013516654928663E-03
               1.8560851951799816E-02
              -4.1088003050471110E-03
               6.6438128344197527E-03
               5.5273252119840532E-03
               1.6044408775087718E-03
               1.9311648700958534E-04
              -9.0021211459085232E-03
              -8.2629467574469387E-03
               1.0472611862284122E-02
               1.1210494552018198E-02
              -5.0147990645402866E-03
               6.4144798800268308E-03
               5.0893030251947082E-03
               9.0203496786745406E-03
              -1.6218586259027716E-02
               1.4872047685072233E-02
               7.9351635778024572E-03
              -1.3028993432660764E-02
              -4.5771606197780070E-03
               8.2803587918245998E-04
               8.0408629713098496E-03
              -2.9507127445394165E-03
               6.8581596099668934E-06
               6.1506247636011514E-03
              -8.8789906891264259E-03
              -9.6551548928074365E-03
               1.5147726277998911E-02
              -1.6488362909844331E-02
              -7.6086352300734003E-03
               2.2479918716427874E-03
               1.7106065219428678E-03
               8.2968760210479636E-03
              -8.6563493524142721E-03
              -7.8022332298282350E-03
               7.4241179801357270E-03
               4.0877452891859142E-03
              -1.3287926037484213E-03
               3.7302491359821912E-04
               2.5011770540801581E-03
              -1.2194386112976973E-03
               1.3365240477079160E-02
              -3.3064837993602848E-03
              -1.0995088446889333E-03
               8.7146893869725628E-03
               7.3883948392328407E-03
              -6.0316872736283916E-03
               3.4616261558939937E-03
               4.2248797780277351E-03
               4.4082697018972775E-03
              -2.1576834412257852E-03
               1.3067436385374607E-02
               4.9480681009800146E-04
               4.5222302579709930E-03
               4.3153691770199745E-03
              -3.3077423362343583E-03
               3.5882200502715734E-03
               8.4613373986447415E-03
              -6.5792701311574080E-04
               9.3077046108164621E-04
               3.6880905579677620E-03
               7.1780349768632828E-03
               7.3374315442414932E-03
              -8.2779498267623961E-03
              -2.0556583620612509E-03
              -6.5957274699250342E-04
              -1.4793545177990174E-03
               1.7889056844411838E-03
               1.6741330775782654E-03
              -5.5678446725164624E-03
               1.6303766815159676E-03
               1.5749172012482784E-02
               2.9467172229099598E-03
               1.6659741883392363E-03
               1.9121640177364866E-04
               1.7361281216880899E-03
              -6.8478624477018313E-04
              -5.9747140719270311E-03
               6.9558782353075395E-03
              -2.6499714572086859E-03
               2.3235744851655949E-03
              -3.1443067885945886E-04
               3.6173970372629116E-03
              -1.5434075737689218E-03
               1.9308582976122106E-03
              -3.5824114759733234E-03
              -1.7209776388888105E-02
               8.7839935823943796E-03
               6.7119631444498579E-03
               1.2910748958392749E-02
              -2.6427846324940437E-03
              -1.5874850258892634E-03
         &END THERMOSTAT_ENERGY
         &RNG_INIT
Wiener process for Thermostat # 1        1 F T T  -1.5601997779545997E+00        4027757407.0        1559045809.0        3403552754.0        1703120254.0         453778739.0        2861026355.0             12345.0             12345.0             12345.0             12345.0             12345.0             12345.0             12345.0             12345.0             12345.0             12345.0             12345.0             12345.0
Wiener process for Thermostat # 2        1 F T T  -4.0112764818655514E-02        3838101567.0        1430396723.0        1556923290.0        2889325561.0         607612135.0        3761282217.0        3692455944.0        1366884236.0        2968912127.0         335948734.0        4161675175.0         475798818.0        3692455944.0        1366884236.0        2968912127.0         335948734.0        4161675175.0         475798818.0
Wiener process for Thermostat # 3        1 F T T  -2.7485675335982579E-01         482699311.0        2506409672.0        1202736307.0        1073196783.0        1141297417.0        2856513754.0        1015873554.0        1310354410.0        2249465273.0         994084013.0        2912484720.0        3876682925.0        1015873554.0        1310354410.0        2249465273.0         994084013.0        2912484720.0        3876682925.0
Wiener process for Thermostat # 4        1 F T T  -9.8957058820594379E-01        3129827523.0        3549124345.0        1353678049.0        1344233659.0        2578763699.0        1106953444.0        2338701263.0        1119171942.0        2570676563.0         317077452.0        3194180850.0         618832124.0        2338701263.0        1119171942.0        2570676563.0         317077452.0        3194180850.0         618832124.0
Wiener process for Thermostat # 5        1 F T T   8.1743834600370391E-01         587879607.0         702838090.0         820286405.0        1159088393.0        1840431053.0        2379049004.0        1597262096.0        3906379055.0        3312112953.0        1016013135.0        4099474108.0         275305423.0        1597262096.0        3906379055.0        3312112953.0        1016013135.0        4099474108.0         275305423.0
Wiener process for Thermostat # 6        1 F T T  -4.6635220676026440E-01        1255338812.0        2941627828.0        2767710176.0        1701464963.0        2824905014.0        2257709657.0          97147054.0        3131372450.0         829345164.0        3691032523.0        3006063034.0        4259826321.0          97147054.0        3131372450.0         829345164.0        3691032523.0        3006063034.0        4259826321.0
Wiener process for Thermostat # 7        1 F T T  -2.7221417990508723E-01        2928923925.0        1475590831.0        3028549759.0        1729569924.0         123262326.0        1965188850.0         796079799.0        2105258207.0         955365076.0        2923159030.0        4116632677.0        3067683584.0         796079799.0        2105258207.0         955365076.0        2923159030.0        4116632677.0        3067683584.0
Wiener process for Thermostat # 8        1 F T T  -1.3371509559371584E+00        3293786404.0        2324351260.0        4224364702.0        1341956089.0         912321799.0        2697559406.0        3281794178.0        2616230133.0        1457051261.0        2762791137.0        2480527362.0        2282316169.0        3281794178.0        2616230133.0        1457051261.0        2762791137.0        2480527362.0        2282316169.0
Wiener process for Thermostat # 9        1 F T T  -8.7225140957356684E-01         657961678.0        1513147170.0        2219186603.0        4111646695.0         616753226.0        2747528653.0        3777646647.0        1837464056.0        4204654757.0         664239048.0        4190510072.0        2959195122.0        3777646647.0        1837464056.0        4204654757.0         664239048.0        4190510072.0        2959195122.0
Wiener process for Thermostat # 10       1 F T T  -6.2889449580622436E-01          96284293.0        2446379684.0        3801610533.0        2961863039.0        1877110468.0         129512113.0        4215590817.0        3862461878.0        1087200967.0        1544910132.0         936383720.0        1611370123.0        4215590817.0        3862461878.0        1087200967.0        1544910132.0         936383720.0        1611370123.0
Wiener process for Thermostat # 11       1 F T T   5.7191327297384098E-01         909895394.0        1862319182.0        2400367466.0        1201802882.0        2818881371.0          83822050.0        1683636369.0         362165168.0         814316280.0         869382050.0         980203903.0        2062101717.0        1683636369.0         362165168.0         814316280.0         869382050.0         980203903.0        2062101717.0
Wiener process for Thermostat # 12       1 F T T  -2.0098512161557830E-01        4281566709.0        2729512869.0         275332126.0         437149450.0        1041778670.0        1778805263.0         272317999.0         166758548.0         310112982.0         201045826.0        1680231254.0         118290799.0         272317999.0         166758548.0         310112982.0         201045826.0        1680231254.0         118290799.0
Wiener process for Thermostat # 13       1 F T T   9.4560796151122029E-01        3557498645.0        2583014714.0        2425630516.0         920535172.0        3770643442.0         978988578.0        2245755202.0        1652682525.0        2865544364.0         721509566.0         209733568.0         592362218.0        2245755202.0        1652682525.0        2865544364.0         721509566.0         209733568.0         592362218.0