 # Version information for this restart file 
 # current date 2024-12-10 19:57:20.309
 # current working dir /home/ndv3235/comp-lab-class-2024/Week12-IntroAIMD/Run_Proton
 # Program compiled at                              Sat Dec 12 18:27:15 EST 2020
 # Program compiled on                                         cs001.nyu.cluster
 # Program compiled for                                                nyu-intel
 # Source code revision number                                       git:8c64c6e
 &GLOBAL
   PRINT_LEVEL  LOW
   PROJECT_NAME proton_aimd_1ns_every0.5f
   RUN_TYPE  MD
   WALLTIME 21600
 &END GLOBAL
 &MOTION
   &GEO_OPT
     OPTIMIZER  BFGS
     MAX_ITER  100
     MAX_DR     3.0000000000000001E-03
     &BFGS
     &END BFGS
   &END GEO_OPT
   &MD
     ENSEMBLE  NVT
     STEPS  2000
     TIMESTEP     4.9999999999999994E-01
     STEP_START_VAL  1997
     TIME_START_VAL     9.9849999999998249E+02
     ECONS_START_VAL    -1.1026316107807854E+03
     TEMPERATURE     3.0000000000000000E+02
     &THERMOSTAT
       TYPE  GLE
       REGION  MASSIVE
       &GLE
         NDIM  5
         A_SCALE     1.0000000000000000E+00
         A_LIST     1.8595758612559999E+02    2.7263853498399998E-01    1.1526100454610001E+01   -3.6414578262600003E+01 \
             2.3173375816020001E+02
         A_LIST    -2.7809524712060002E-01    8.5951591808710006E-05    7.2189048017650004E-01   -1.9844539343859999E-01 \
             4.2409257583420001E-01
         A_LIST    -1.4825808131210000E+01   -7.2189048017650004E-01    1.3590902121280000E+00    5.1498896280349999E+00 \
            -9.9949268450990001E+00
         A_LIST    -1.0372189126880000E+01    1.9844539343859999E-01   -5.1498896280349999E+00    2.6661910891169999E+01 \
             1.1507715495310000E+01
         A_LIST     2.1801346360420001E+02   -4.2409257583420001E-01    9.9949268450990001E+00   -1.1507715495310000E+01 \
             3.0958394565589998E+02
         &THERMOSTAT_ENERGY
               4.9391096861904713E-04
               1.1484936724031707E-03
              -4.2662436600495362E-03
               3.9147822825289624E-03
              -1.3139634398474098E-02
               6.6600033677488655E-03
              -9.2519863321684182E-04
              -5.5137583177630326E-03
               7.6764268094942547E-03
               3.4074446001703639E-03
               1.0388462193219485E-02
               3.4223376148652205E-03
              -1.1378564016099654E-02
              -5.1002287742981239E-03
              -4.7936598955292462E-04
              -2.1832275391068167E-03
               9.8298593393363835E-03
              -9.1454643017934763E-03
               5.0395239214729532E-04
              -3.5202928322396135E-03
               5.3377538951530034E-04
               6.8549419092094246E-03
              -1.1758839511887562E-02
              -3.4003629621732066E-03
              -1.2086888531556968E-03
              -5.7317693915489689E-03
               1.0738635488951844E-02
              -7.6961010595823004E-04
               5.6702039778022423E-03
               2.2726045007307200E-03
               3.2238380897802059E-02
               9.3334909499537804E-03
               8.1725917680556155E-03
               9.6896378366621710E-03
               6.0345477362914015E-03
               7.9820349869085816E-03
              -4.6487981084754144E-03
              -3.6714828926284792E-03
              -3.8611270902747449E-03
               1.5448372435127125E-03
               5.0393466006609447E-03
              -6.9057795078955458E-03
               5.1876447406835821E-03
               2.4597743280287878E-03
               2.9852578954716654E-03
               4.4520894832843876E-03
              -3.9535449040456593E-03
               1.1812867909013253E-02
               2.7819969897332382E-03
               2.6204590285737591E-03
               4.0785602726215904E-03
              -5.6143261637417443E-03
              -1.0561304964433519E-03
               5.3807496694043650E-03
              -9.7790736240049563E-03
              -1.7030557698180160E-03
              -1.9435825405077336E-04
              -6.3806860651184740E-03
               4.5984924444192939E-03
               8.4224443955764720E-03
              -2.7727474235207409E-03
              -2.5820245365834306E-04
               1.1156638383284713E-02
              -4.7275135725597913E-03
              -3.4746914956193392E-03
               4.3484514029005668E-03
              -7.1165222432420334E-03
               4.1968782536654136E-03
               1.2797645472515159E-02
              -1.5903147745977204E-03
              -9.1407194466518096E-03
               5.8494563952877499E-03
               3.5186635070552814E-04
               2.7256703353731736E-03
               7.0578741335431171E-03
              -1.6643716302899403E-02
               1.2767803154941196E-02
               7.9854941092168900E-03
               4.3054921122176329E-03
              -7.3149719529266698E-03
              -2.1712912420688308E-03
              -4.0552082335509141E-03
               2.7128509197033609E-03
               7.0546595504842441E-04
               4.1097849856620875E-03
               8.6746675516111479E-03
              -8.5472198245944968E-03
              -8.6353194166073621E-03
              -3.4889523249213910E-03
               2.3552535811726251E-03
              -4.0688772771483065E-04
              -9.6584902912037023E-03
               5.3813876048328167E-04
              -8.5107050916382529E-03
              -2.2067979110836486E-03
              -1.0860045443190348E-04
              -7.0619503858603081E-04
               2.4957616743301637E-03
               1.0125701672590335E-02
               6.1172467516436790E-04
              -4.3442862494548597E-03
              -6.4112335370948743E-03
               3.7335138560120224E-04
              -8.1594260166630486E-03
               5.2167361564256550E-03
               1.4556198727808688E-02
               3.5404222232280854E-03
              -5.7516288869291143E-03
               8.3375717646073638E-03
              -6.6315920738722342E-03
               2.3918326276119537E-03
               1.0410212839042150E-02
              -5.2574923708739243E-03
               3.9164353301515574E-03
               6.3337691707675142E-03
              -1.7992584636703393E-03
              -3.7900166999045858E-04
               5.8984713604846915E-04
               4.9971885272852793E-03
               4.5496098628937018E-04
              -4.5028739930996660E-03
               2.3075525652582459E-04
               1.4582844235777260E-02
               7.3883776804364266E-03
              -4.1252900690196218E-03
              -1.4158119202954967E-02
               6.8222614478526513E-03
               2.4017658865292785E-03
              -1.0305855487895543E-03
               6.7987043350204958E-03
              -7.1669661174210359E-03
               3.1280891572167276E-03
              -4.2408045525976629E-03
               3.8846167327624237E-03
              -1.1978050428479016E-03
               1.8107218397468345E-03
              -1.4496664138401887E-04
              -1.1187994715386234E-02
              -3.9955441660345934E-03
              -5.8015366162718681E-03
              -2.8574740310743376E-03
               9.4952708960731793E-03
               1.0699126692264634E-02
              -3.7795141425297336E-03
              -5.1931963275185363E-03
              -5.7472140953913568E-03
               3.0135663217201170E-04
               5.3023734269576003E-03
              -4.0859956279659096E-03
              -1.8173077341492401E-03
              -1.1287516959366795E-02
               3.8197526357049965E-03
               5.0619890266713507E-04
              -1.7498075952971407E-03
               1.0678080800269635E-02
              -1.1880559956257966E-03
               7.4436496180277159E-03
               3.1915860316547966E-03
              -1.0514578380741256E-02
               1.3725189000048378E-04
              -7.1896042833910837E-03
               4.2967213484657700E-03
               3.3420885438647566E-03
              -3.0640319918707429E-05
               1.2932212139441937E-02
               1.7061957155259499E-02
               7.6718713039657096E-03
              -2.6255960945629240E-02
              -6.6640169108846971E-04
              -6.3571383801343956E-04
              -4.2100859090817436E-03
              -3.7705687702740422E-03
              -1.1746422341244490E-03
              -3.4339857103177448E-03
              -3.5997609851972515E-03
               3.2286796597967731E-03
              -4.3721216873298316E-03
              -2.4349655123304748E-03
              -6.9953335802892791E-04
               1.0313372066821118E-02
              -2.2057596024093397E-03
              -6.7481240933483014E-04
               8.1758015636256651E-03
              -2.6464106149435739E-02
               1.4138452765756537E-02
               8.6533665846081752E-04
              -1.1551819181188090E-03
              -4.6143727220929855E-03
              -3.2307835206625527E-03
               6.0654095751170472E-04
               1.9775652883369162E-04
              -2.9033432465293247E-04
              -1.0436666260928824E-02
               1.6339832177194740E-02
               9.8343511204557264E-04
              -1.0318453533579686E-02
               1.3429522222058680E-03
               4.3161845325836402E-03
               1.5497121511157850E-03
               8.4007857518468522E-04
               1.9063742778085658E-03
              -1.1023554832744293E-02
               1.6038781859193858E-03
              -3.9770371951020830E-03
              -5.0052644458061608E-03
               7.8604522191616996E-03
              -1.9207922849787784E-03
              -5.8859003852631576E-04
               4.5996124229881187E-04
               1.3783243834862202E-03
               5.7687218267460797E-03
              -9.2072446217366412E-03
               7.4083308247139580E-03
               4.4334928385894251E-03
               1.5318960136913500E-03
              -2.8940449103342790E-03
              -1.2747092799412050E-02
               2.6430641003619051E-03
               3.8220707619790301E-03
              -4.2581141897056656E-03
               4.4503399948139172E-03
              -8.1092376370128453E-03
               4.6028011918387152E-04
               1.8318863950266294E-04
               1.0163687696144632E-03
              -3.3832797357841830E-03
               1.5640687229865416E-03
               3.8824459658689733E-03
              -4.6847380894793744E-03
              -1.6586655328487345E-03
              -7.7121295815139115E-03
              -2.7530216890565666E-04
               7.3920658965449908E-03
              -3.5571040177210050E-03
               3.0333213197558150E-03
              -3.1174928209057188E-04
              -3.0382948271915687E-03
               3.9227819780697747E-03
               5.5279376729969543E-03
               3.2018502800862485E-03
               3.6163649466580123E-03
              -8.6544716049736081E-03
               3.8963778701625292E-04
              -2.2493538704430843E-03
               3.7056797231307410E-03
               1.6582991089651425E-03
               1.7845481351855331E-03
              -6.4021830093475803E-04
              -5.7950905184934792E-05
              -4.6544902023156944E-03
               3.3709480737172124E-03
              -6.9073829557933872E-03
              -6.0355168412382695E-03
              -4.3093319961945804E-03
               3.0593449908404647E-03
              -2.6812667374106875E-03
               2.1843652346906748E-02
              -1.0471301019997032E-02
               1.2210389834704700E-02
              -2.5863596095631408E-02
               2.7491758618428154E-02
               8.7201204430756556E-03
               4.5193402365166641E-03
               8.1332042907760020E-03
               8.4590002937265235E-03
              -1.2842885576529548E-02
               6.0941752718315194E-03
              -6.3213405788070942E-03
              -3.6781508552077382E-03
               1.4504060951944283E-02
               1.4184505172097710E-03
              -4.9711679816424022E-03
               1.3570938900769767E-03
               1.2367661133012830E-02
               1.9370462825850159E-03
               4.5701261387829636E-04
              -2.4289753941719821E-02
               1.6579757335544853E-02
              -4.8920127830882872E-03
               3.9764552005192404E-03
              -4.6046622891193793E-03
               2.0877756834492955E-03
              -4.4922353923172635E-03
              -5.2576312307565020E-03
               2.9856147604573630E-03
              -2.6303446020839536E-03
               6.0336314134108275E-03
              -9.0192719432364704E-03
              -6.7112312731473700E-03
              -3.8687558483529085E-03
              -7.3852158154953228E-04
               7.1734069485283672E-03
               2.8674462189787978E-05
              -2.3633266641746521E-03
              -2.0805081823747256E-05
               1.3972073530433893E-02
               3.3447988723292466E-04
               1.3876626358865824E-04
              -6.9585545626940290E-03
              -3.3397297001893540E-03
              -1.4126237817701561E-02
               6.4841015960556492E-03
               2.0072932532521483E-02
              -4.9356486272732463E-03
               1.3186258035134757E-02
              -1.0124257444551917E-02
              -3.0549563964942673E-03
               2.4761455393313881E-03
               1.8092271501128619E-03
               1.1635108808982872E-02
              -3.4267104120024345E-05
              -1.6238212490468959E-02
              -4.9941604940495809E-03
               2.0215119800171280E-02
              -6.0357380689632558E-03
               6.0927703210066422E-03
               8.4351698292534655E-03
              -2.6360702532884060E-04
              -3.7000492482562653E-03
              -1.4982978049638392E-04
               1.2395435292590623E-02
              -1.6372081095968251E-02
              -7.8072131670486426E-03
               1.3396000544365886E-02
              -5.4447451780762759E-05
               5.3558743416554566E-03
              -1.4148862595623343E-03
               1.5135899401273823E-03
              -6.2019260074843421E-03
               1.4388706124201215E-04
              -3.2257752266482607E-03
              -7.4592327552170275E-03
               1.4489456972516090E-03
              -5.0718708759148416E-03
               1.2906329156506108E-03
               2.8338260596734114E-03
               9.5345145687854137E-03
               1.7811981015053201E-03
              -1.1216817471187230E-02
               1.1010221385734960E-02
              -6.4640716734760250E-03
               7.5256407858030321E-03
               2.6413359407556842E-03
              -2.8476889568229201E-03
              -3.9901659264644784E-03
               1.9301829082430688E-03
               2.2250319870981902E-03
              -7.5568095723612663E-03
              -5.2965473561069152E-03
               2.8547103426033219E-03
               5.9343690545799873E-03
               9.7344583327818208E-03
              -3.4180220391974367E-03
              -4.5875108437699319E-03
              -1.2502955584642962E-02
               1.0014072527185421E-02
               5.1256987281879810E-03
              -1.4835034442113032E-02
              -3.9559402419652740E-03
               1.2095034067212802E-02
              -5.8321424470926617E-03
              -1.0164739450905421E-02
              -1.3344870543203052E-02
               1.8448045520957210E-04
              -6.9949328333025257E-03
               1.7870129114210764E-02
               5.0749631423248464E-03
              -4.3579170279901833E-03
              -1.9115606160422297E-03
              -9.5751189564917457E-03
               3.7832015810738227E-03
               1.0310340478982319E-04
               2.0946369197512187E-03
               2.5504578930456417E-03
              -1.5314553140324330E-03
               1.1667765995632190E-03
               5.0031417322605378E-03
              -1.5032667567905462E-02
               1.8278350177288903E-03
               2.3076958425957353E-04
               5.1819724837685027E-03
               4.7139481578492492E-03
               1.6468640247294150E-02
              -1.6945990589400522E-02
              -1.7882308308831252E-02
               4.5842974650520899E-03
               6.4886651410721681E-03
              -7.3679680222319089E-03
               5.2636463101352082E-04
               1.1500899918268524E-03
              -6.6628393388152929E-03
               1.6813526087460472E-02
              -1.8071669748239148E-03
              -6.7613308906797447E-03
              -1.0559795649515208E-03
               9.1164494116048479E-03
              -1.1811563473869226E-02
               1.8825778595076481E-03
               2.4457374162945500E-03
              -3.1956595767400724E-02
               1.5107131257804319E-02
               2.8818694076577643E-03
              -9.0391254701873858E-03
               3.0857696314627835E-03
               1.6851204018952137E-02
              -4.1586652328879986E-03
               4.5549325992536114E-03
               1.0970620689304249E-02
              -7.6274231827296902E-03
              -5.0528288387277796E-03
               5.6747878374663061E-03
               3.5855711815260837E-03
               2.7674840127277205E-03
               5.5485884833922656E-03
              -4.3880999905931166E-03
               1.1828964353342861E-03
              -3.4225496348345469E-03
              -7.1649957532022197E-03
               3.3428612840580656E-03
              -4.7557166540393488E-03
              -3.4896939538870092E-03
              -3.1273594603615554E-03
               4.8490816121668301E-03
               3.5207376446021482E-02
               3.2179084969408425E-02
               8.4426537635516347E-03
              -4.7867380143289633E-04
               4.5332903356892018E-03
               7.4718219231869765E-03
               1.3122513758581939E-02
              -8.4084377239739732E-04
              -9.8906134328702773E-03
               1.3175228194225504E-02
               2.2135288426656963E-02
               1.1721948407551960E-02
              -1.0561525773565006E-03
              -4.4657654275449968E-03
              -2.2121053905483322E-03
               5.7891496095917967E-03
               4.0153613374789383E-03
              -1.4656184302354195E-02
               7.3267933365422781E-04
               3.5668872904158454E-03
               4.2310506900329987E-03
               1.8957492040902781E-03
               5.2115598331795333E-03
               2.5517649045930053E-03
               1.3511302438424608E-02
               6.8339101199869096E-03
              -8.4830617216031853E-03
              -8.1508971967341338E-04
              -7.7781221630489911E-03
               3.9425760689333926E-03
              -1.3277671330020775E-03
              -2.7466056606260088E-03
              -3.1951346492079904E-03
              -1.7590468357710078E-02
              -8.8174727280470044E-03
              -4.4488094460878019E-03
               6.2688555869261017E-03
               1.4234003721829876E-02
               8.5924633970133613E-03
              -4.4080313298787099E-05
               3.8724258485300640E-03
               2.8852317815786926E-04
              -2.3195854490103536E-04
              -6.3541661949536796E-03
              -5.7149912835892228E-04
               1.7807034705583799E-02
              -1.1957524677287584E-02
              -3.8104355098242237E-03
              -8.0321655663853353E-03
               2.2219638167300325E-03
              -7.9189733255143871E-04
               3.1987065780549754E-03
               1.3064719198232174E-02
               3.8886842369557670E-03
               1.0210880412081919E-02
              -1.1423355199724691E-02
              -1.9929759844752024E-03
              -3.7743194549222010E-03
              -5.7419888841387066E-03
               5.0258696450913992E-03
               6.4832978083401919E-04
               1.3456511370097304E-03
              -5.1443617451681881E-04
               3.2650831795735984E-03
              -9.2371764932976767E-03
               1.8387263159924696E-02
              -4.1246954855847237E-03
               6.7498291449037892E-03
               5.9120134179689006E-03
               1.5293962436007951E-03
               9.4028501283416810E-05
              -8.7518523444312605E-03
              -8.2823595641649504E-03
               9.3484269610728601E-03
               1.1306148005415299E-02
              -4.9783490533217159E-03
               6.5400807947708353E-03
               4.5571148867708210E-03
               9.0888195113328837E-03
              -1.6045331667090292E-02
               1.5347466852780104E-02
               8.0105680566980222E-03
              -1.3136708099448554E-02
              -4.5630177215265520E-03
               8.2335622618188542E-04
               8.2180954718377511E-03
              -3.2071995847265003E-03
               1.9454825122703544E-04
               6.0326637586689321E-03
              -8.7683965718488785E-03
              -9.5806297091137194E-03
               1.5151715124954786E-02
              -1.6262623861053333E-02
              -7.6867430042197359E-03
               2.1611715937660536E-03
               1.7117543744851855E-03
               8.2401858135383102E-03
              -8.7264398496991226E-03
              -7.2541139550482501E-03
               7.5342808238926225E-03
               4.1178644194051189E-03
               2.1763841633061303E-04
               2.3501504847582572E-04
               2.1014134295425633E-03
              -1.2866533596806232E-03
               1.2250124193065936E-02
              -3.1160768392043841E-03
              -7.0374625017231678E-04
               8.4952225572008221E-03
               6.3508240302493140E-03
              -6.4401169918747135E-03
               3.3363551096783303E-03
               4.2370884589724277E-03
               4.3295244349545034E-03
              -2.2293891102389248E-03
               1.2903318933279532E-02
               1.1143173887511611E-03
               4.4902895608567505E-03
               4.2847787639026073E-03
              -3.3574122287493955E-03
               3.5534376704830424E-03
               8.4516140851405835E-03
              -3.7690926805918968E-04
               1.1880942578232643E-03
               3.5725426971745886E-03
               7.0669786022388645E-03
               7.3584341478045608E-03
              -8.4957036897943261E-03
              -2.1350353186730705E-03
              -5.7754346249207808E-04
              -1.5558292400402621E-03
               1.7800969244776746E-03
               1.7851961870084278E-03
              -5.5373772172725728E-03
               1.6402285898366958E-03
               1.5603316017155686E-02
               2.9937793255049327E-03
               1.9423286147953272E-03
              -3.6678867126924597E-04
               1.7252406370829581E-03
              -4.7946982633262499E-04
              -6.0156486521079191E-03
               6.1678018555068152E-03
              -2.8171133663871108E-03
               1.6636432869760011E-03
              -3.1467365794392131E-04
               3.8000133798727770E-03
              -1.5709553836664998E-03
               2.0541322159778460E-03
              -4.3288599506496224E-03
              -1.7050301396801991E-02
               8.3556096422907501E-03
               6.3400045290411501E-03
               1.2880330598692553E-02
              -2.7401701382093898E-03
              -1.3390487652853893E-03
         &END THERMOSTAT_ENERGY
         &RNG_INIT
Wiener process for Thermostat # 1        1 F T T   3.7280401166127353E-01        2396824340.0        1285798124.0        1970812289.0        4262378425.0        2500496477.0        3105761546.0             12345.0             12345.0             12345.0             12345.0             12345.0             12345.0             12345.0             12345.0             12345.0             12345.0             12345.0             12345.0
Wiener process for Thermostat # 2        1 F T T  -2.8031459711754392E-01        1517340215.0         764337745.0        1777988352.0        1272471177.0        3093987526.0        2495380513.0        3692455944.0        1366884236.0        2968912127.0         335948734.0        4161675175.0         475798818.0        3692455944.0        1366884236.0        2968912127.0         335948734.0        4161675175.0         475798818.0
Wiener process for Thermostat # 3        1 F T T   7.0414863813957229E-01        1874984675.0        3540139467.0        3102430019.0        1608426380.0         643336117.0        1230365417.0        1015873554.0        1310354410.0        2249465273.0         994084013.0        2912484720.0        3876682925.0        1015873554.0        1310354410.0        2249465273.0         994084013.0        2912484720.0        3876682925.0
Wiener process for Thermostat # 4        1 F T T   2.2606224243119818E-01        3416187057.0        1637601412.0         393440280.0        2948182120.0        3407482107.0        2343296956.0        2338701263.0        1119171942.0        2570676563.0         317077452.0        3194180850.0         618832124.0        2338701263.0        1119171942.0        2570676563.0         317077452.0        3194180850.0         618832124.0
Wiener process for Thermostat # 5        1 F T T  -1.0267294306732384E+00         315072143.0        4137263975.0        4196656129.0        1282237791.0        3639735469.0        1937530485.0        1597262096.0        3906379055.0        3312112953.0        1016013135.0        4099474108.0         275305423.0        1597262096.0        3906379055.0        3312112953.0        1016013135.0        4099474108.0         275305423.0
Wiener process for Thermostat # 6        1 F T T   9.2624835653208748E-01        3222219212.0        3105331301.0        2094058484.0        2511776071.0        3719186732.0        3505559269.0          97147054.0        3131372450.0         829345164.0        3691032523.0        3006063034.0        4259826321.0          97147054.0        3131372450.0         829345164.0        3691032523.0        3006063034.0        4259826321.0
Wiener process for Thermostat # 7        1 F T T  -4.6721006089689310E-01        2921304001.0        3534845789.0         764942181.0        2980414860.0        2807768180.0         274774080.0         796079799.0        2105258207.0         955365076.0        2923159030.0        4116632677.0        3067683584.0         796079799.0        2105258207.0         955365076.0        2923159030.0        4116632677.0        3067683584.0
Wiener process for Thermostat # 8        1 F T T   4.8809173354813140E-01        3327178806.0        3682317356.0        2663069382.0         319044460.0        3975670735.0         562702070.0        3281794178.0        2616230133.0        1457051261.0        2762791137.0        2480527362.0        2282316169.0        3281794178.0        2616230133.0        1457051261.0        2762791137.0        2480527362.0        2282316169.0
Wiener process for Thermostat # 9        1 F T T  -8.1805399140306756E-01         433221438.0         349071730.0        2033385903.0        2639944804.0        3988392127.0        3801627598.0        3777646647.0        1837464056.0        4204654757.0         664239048.0        4190510072.0        2959195122.0        3777646647.0        1837464056.0        4204654757.0         664239048.0        4190510072.0        2959195122.0
Wiener process for Thermostat # 10       1 F T T  -2.7062828385550008E-01        2290601073.0        1666814614.0        3289919364.0        2930088785.0        1500929831.0        1860303943.0        4215590817.0        3862461878.0        1087200967.0        1544910132.0         936383720.0        1611370123.0        4215590817.0        3862461878.0        1087200967.0        1544910132.0         936383720.0        1611370123.0
Wiener process for Thermostat # 11       1 F T T   6.8652417552969780E-01        2151060734.0         580174056.0        1748210725.0         399674445.0        1879492130.0        2741776977.0        1683636369.0         362165168.0         814316280.0         869382050.0         980203903.0        2062101717.0        1683636369.0         362165168.0         814316280.0         869382050.0         980203903.0        2062101717.0
Wiener process for Thermostat # 12       1 F T T   1.2985463821691814E+00        3478492904.0        1830493925.0          17364685.0        2058676739.0        2676153401.0        4087350495.0         272317999.0         166758548.0         310112982.0         201045826.0        1680231254.0         118290799.0         272317999.0         166758548.0         310112982.0         201045826.0        1680231254.0         118290799.0
Wiener process for Thermostat # 13       1 F T T   2.0061703114922356E+00        2097018817.0        1300727704.0         367347443.0         582130443.0        2824054692.0        3111690587.0        2245755202.0        1652682525.0        2865544364.0         721509566.0         209733568.0         592362218.0        2245755202.0        1652682525.0        2865544364.0         721509566.0         209733568.0         592362218.0