 # Version information for this restart file 
 # current date 2024-12-10 18:51:24.319
 # current working dir /home/ndv3235/comp-lab-class-2024/Week12-IntroAIMD/Run_Proton
 # Program compiled at                              Sat Dec 12 18:27:15 EST 2020
 # Program compiled on                                         cs001.nyu.cluster
 # Program compiled for                                                nyu-intel
 # Source code revision number                                       git:8c64c6e
 &GLOBAL
   PRINT_LEVEL  LOW
   PROJECT_NAME proton_aimd_1ns_every0.5f
   RUN_TYPE  MD
   WALLTIME 21600
 &END GLOBAL
 &MOTION
   &GEO_OPT
     OPTIMIZER  BFGS
     MAX_ITER  100
     MAX_DR     3.0000000000000001E-03
     &BFGS
     &END BFGS
   &END GEO_OPT
   &MD
     ENSEMBLE  NVT
     STEPS  2000
     TIMESTEP     4.9999999999999994E-01
     STEP_START_VAL  1500
     TIME_START_VAL     7.5000000000000762E+02
     ECONS_START_VAL    -1.1026316107807854E+03
     TEMPERATURE     3.0000000000000000E+02
     &THERMOSTAT
       TYPE  GLE
       REGION  MASSIVE
       &GLE
         NDIM  5
         A_SCALE     1.0000000000000000E+00
         A_LIST     1.8595758612559999E+02    2.7263853498399998E-01    1.1526100454610001E+01   -3.6414578262600003E+01 \
             2.3173375816020001E+02
         A_LIST    -2.7809524712060002E-01    8.5951591808710006E-05    7.2189048017650004E-01   -1.9844539343859999E-01 \
             4.2409257583420001E-01
         A_LIST    -1.4825808131210000E+01   -7.2189048017650004E-01    1.3590902121280000E+00    5.1498896280349999E+00 \
            -9.9949268450990001E+00
         A_LIST    -1.0372189126880000E+01    1.9844539343859999E-01   -5.1498896280349999E+00    2.6661910891169999E+01 \
             1.1507715495310000E+01
         A_LIST     2.1801346360420001E+02   -4.2409257583420001E-01    9.9949268450990001E+00   -1.1507715495310000E+01 \
             3.0958394565589998E+02
         &THERMOSTAT_ENERGY
               4.1045591828720160E-04
              -1.2442018452085552E-03
              -9.7353200722184144E-04
               7.4941189107934616E-03
              -1.6504960781227179E-02
               5.4207347328592888E-03
               2.5835580832994378E-03
              -9.3997733963382454E-03
               5.2574182186659341E-03
               4.9647863009388568E-03
               4.2438673288646752E-03
              -3.3668183289303159E-03
              -2.6916484414679937E-03
              -7.0320751799128611E-03
               2.4491838989921600E-03
              -4.9230669250945316E-03
               7.4217077711107842E-03
              -4.7023126389888819E-03
               2.1571126990795482E-03
              -3.9740479430608140E-03
               2.6048478857045114E-03
               3.1521787324902766E-03
              -6.1839654844756623E-03
               1.3458503064283573E-04
              -2.9687468987855932E-03
              -6.5337237928658025E-03
               5.8967302587538606E-03
               4.5502865971359886E-04
               5.1674935461998896E-03
               3.9679993148995210E-04
               2.9698013389274157E-02
               1.0492728816515107E-02
               1.0905061591886636E-02
               9.5946379216912715E-03
               3.8733377019786728E-03
               1.1351707647856526E-02
              -3.2984685162145027E-03
              -2.8046298211116972E-03
              -1.8812764530089245E-03
               1.5145026392456369E-03
               3.5534118720462805E-03
              -2.5637858532786438E-03
               3.3399582578951151E-03
               3.0336195104621383E-03
              -9.2923281945558433E-04
               2.7961342141702024E-03
              -5.1765976286034954E-03
               1.0839616073566214E-02
               2.1652333889319222E-03
               3.6437223683931106E-03
               6.4237108276926497E-03
              -1.4044386915357065E-02
              -1.5448894432329235E-03
               1.3594916213799990E-02
              -6.6730274809315661E-03
              -1.0200911142689418E-03
               1.0064346426785660E-03
              -4.2546626723208292E-04
               4.2399942612871954E-03
               4.4528995422366442E-03
              -4.6537983567206008E-03
              -8.5729162797157990E-03
               1.3895818315408077E-02
              -7.5111030026662595E-04
              -2.3964178051636342E-03
               5.4423144705886620E-03
              -7.7741912598098652E-03
               1.6951591051627174E-03
               1.1775951140322422E-02
               1.6561305656023978E-03
              -2.9896512420188494E-04
              -2.7326392443085732E-03
              -8.9086525023689307E-04
               3.2479341274997049E-03
               2.1644259792309266E-03
              -1.1568491641830742E-02
               1.6160531981431928E-02
               6.6246041805739309E-03
               9.5634521781373695E-03
              -4.5482446298536648E-03
              -9.6466046600286806E-03
              -4.9028822680149175E-03
               1.6214393891879619E-03
              -1.9966252383438676E-04
               3.5827507607917542E-03
               5.6054239737873624E-03
              -7.7696961885310809E-03
               6.4885905785530551E-04
              -2.7964721275106148E-03
               2.7649594661324625E-03
               1.5275540518284226E-03
              -8.1511779963760016E-03
               1.4356722449186360E-03
              -8.7956250314379994E-03
              -4.0985848629719358E-03
               6.5314295146261751E-03
              -3.2450539972807379E-03
               4.3330558380913200E-03
               7.5359910778764940E-03
               3.6335215298819818E-03
              -4.2040891793125911E-03
              -4.9343609530934588E-03
              -1.9160075427842398E-03
              -2.8247503512783944E-03
              -2.0099197153006271E-03
               9.4379132810506351E-03
               3.9396916402556501E-03
              -4.0833905874817838E-03
               6.3495199773453866E-03
              -4.1390723820839258E-03
               5.2053853325975056E-04
               4.1407097445484327E-03
               1.6301674392678591E-03
               8.6045859553090780E-03
               6.1388487922523823E-03
               3.6367761010642780E-03
              -2.9875658149122013E-03
               3.0372831506890780E-03
               7.1260064749643368E-03
              -3.2064264420742293E-03
              -3.5721481808640310E-03
              -8.0883544456741147E-04
               1.0632426047457424E-02
               6.5444535217340314E-03
              -5.9622524478775436E-03
              -1.3358685199668817E-02
               8.3201834265663917E-03
               1.7910564729495817E-03
               3.3656984749899301E-03
              -2.9377663901132122E-03
              -6.3583943834430523E-03
               5.1910862080926561E-03
              -2.9419524244162737E-03
               4.1102794686804188E-03
              -1.4623986709622384E-03
               5.0582036376930093E-03
              -2.3943003268374640E-03
              -6.9076974040715982E-03
              -4.1951344847899058E-03
              -5.7126640222763250E-03
               1.1155823428469994E-03
               1.1022957179986895E-02
               7.7594909387821327E-03
              -5.5662301079367101E-03
              -7.0659865194870781E-03
              -5.0293691557337259E-03
               3.3523355697167873E-03
              -2.8489711031604178E-04
              -6.5340080573726630E-03
              -1.7469322594480714E-03
              -6.8961051322143788E-03
               3.5602050155913059E-03
               4.0475575217282280E-04
              -2.9744047398704673E-03
               2.1923615943690473E-03
               3.2502467159262628E-04
               5.7192194469053307E-03
              -2.8155521235054353E-03
              -6.4060494354107808E-03
               2.2079309871186979E-03
              -3.2154730425820836E-03
               2.1559077280809396E-03
               1.9948359845060517E-03
               2.2893028853720530E-03
               7.4223383825685390E-03
               1.6719667215383271E-02
               1.0660022933927388E-03
              -1.2072315053707245E-02
              -1.7147013487079578E-03
               3.2481119148975953E-03
              -5.3343942206608057E-04
              -3.4497600661088476E-03
              -2.3380281072310164E-03
              -2.7457984189377905E-03
              -3.9011207047613635E-03
               5.3047681356550710E-03
              -9.6166929909893947E-04
              -2.7957464859080217E-03
              -2.5779485621712480E-03
               7.3896812781927288E-03
              -1.9919858675009013E-03
              -1.4758386262577073E-03
               3.9999393109326417E-03
              -2.0645825574165215E-02
               1.4344305844614753E-02
              -1.7140209621407257E-03
              -5.4922056589757891E-04
              -3.5443248238716364E-03
              -3.3022149624641530E-03
              -1.5349449570951234E-04
              -2.1697627288401922E-03
              -1.0042865963217184E-04
              -4.9604096747063479E-03
               9.8991460679974958E-03
               2.7153415200093164E-03
              -8.4516879780000519E-03
              -4.9231555724362744E-04
               2.6380095782933032E-03
               5.7311170917336831E-03
               6.6854555636491049E-05
               1.4763182376019545E-03
              -9.0083013569157502E-03
              -1.5408674972884164E-03
              -8.2950878306380983E-04
               1.4858512923628549E-03
               6.5575080714921283E-03
              -3.3276750436666792E-03
               3.2357987921937123E-03
               2.3258295587458653E-03
               6.3783537527588058E-04
               7.2834767682700644E-03
              -7.6409549272571271E-03
               4.9835092767354008E-03
              -1.4388709865396782E-03
               3.9469822617521086E-03
               2.5189616301299358E-03
              -3.9151591119304273E-03
              -1.7282396457175492E-03
               2.3702856697148441E-03
              -4.5687073988515741E-03
               4.7541040313755778E-03
              -1.0907481489921394E-02
              -3.7040396887340738E-03
               8.3148264498894510E-04
               2.7998228413851156E-03
              -2.6575949180690246E-03
              -1.7088565550224368E-03
               1.4909087938148392E-03
              -5.6114567003856461E-03
               7.5201020467162228E-03
              -9.8415840204878723E-03
               3.0416983903941812E-03
               5.9344219967715417E-03
              -4.8820933435298969E-03
               2.3995677627078947E-03
              -4.9456107021519369E-03
              -2.7133993475282718E-03
               2.5067373261845865E-03
               4.0829739014921467E-03
               3.2709069495347430E-03
               3.6146778097561456E-03
              -5.5280303315778786E-03
               2.0301553105177392E-04
               5.1354834719603761E-04
              -7.6899521856044662E-05
              -2.7844286635745744E-03
               1.6291693614584244E-03
              -2.2602226356057773E-03
              -3.5704510778890712E-03
              -2.3495601816029533E-03
              -2.6856579549666541E-04
               1.0082772628471459E-03
              -4.9121799254198744E-03
              -6.2775547468872815E-03
               2.4540745378055433E-03
              -3.0901469267953533E-03
               1.6590020018012942E-02
              -1.1601885344438768E-02
               3.9242527863979568E-03
              -1.5662897878411897E-02
               2.0219590989633305E-02
               6.2995574327646929E-03
               6.6702677624134975E-03
               8.6874496982069418E-03
               7.8170301674490347E-03
              -1.4109100930235341E-02
               2.5023057644020926E-03
              -4.8902636609002752E-03
              -7.5300143523109667E-03
               9.9654623760550270E-03
               7.9729942958535244E-04
              -8.3346617028165083E-03
               6.2544759940925338E-03
               1.1394708020987184E-02
               1.9380916386991648E-03
               6.5279602850115475E-04
              -2.0511527526302031E-02
               1.9827322007859111E-02
              -5.5059680107881863E-03
               3.4587668740429503E-03
              -7.4001190997300299E-03
               4.2407776066863204E-03
              -2.9307567955989480E-04
              -4.9696334631673137E-03
               5.1688783640325949E-03
              -1.2115014605745648E-02
               6.8228765967443643E-03
              -3.4515988048516330E-03
              -5.3090632657772285E-03
              -6.3415927238408901E-03
               3.2144467480569385E-04
               6.6263528649561703E-03
              -2.0959898013741779E-03
              -1.4207409352296376E-03
              -5.5537103275168078E-03
               5.0626076557267335E-03
              -5.7296197477218200E-04
              -4.2982627471419672E-04
              -3.1001624138079064E-03
              -7.7005819519173485E-03
              -8.6446357167235463E-03
               8.5907627245233372E-03
               1.6881928913703988E-02
              -6.2875243490958035E-03
               7.6118138859970659E-03
              -8.3929545878861020E-03
              -2.7138272122196809E-03
              -2.6183728673070065E-03
               3.9477664153164853E-03
               1.6227093953077473E-02
               5.8620557817048577E-03
              -1.7755446057319626E-02
               5.5939918893070451E-03
               9.7456029692841641E-03
              -8.2869608060192074E-03
               9.6094111139605181E-03
               5.4721240954583202E-03
               1.3110400951864055E-03
              -8.1232784787795744E-03
              -5.5067991910802937E-03
               1.6494020451736195E-02
              -5.6236830372033246E-03
              -6.4296476816210184E-03
               1.0008341535503951E-02
               1.6817583559638242E-03
               3.8768999870648982E-03
               2.2276706058909149E-03
              -4.8501320320235020E-03
              -5.0712603723762142E-03
              -6.0260831129236615E-04
               3.4979696656936257E-03
              -7.4935454382645539E-03
               2.0752222319933397E-03
              -3.9449038822612029E-03
               2.6226456257837424E-03
               1.4177447083294145E-03
               9.5480079098158831E-03
               3.8886107473892566E-03
              -7.9750802249181820E-03
               1.0487694217187499E-02
              -2.9601061131438477E-03
              -1.7076893633017429E-03
               2.2283676079621986E-03
              -1.3044343899569345E-03
              -3.4530501630121221E-03
              -1.6961678663038708E-03
              -1.7375724582499987E-04
              -4.2835685611724980E-03
              -2.3583958768377874E-03
               2.2656572527375563E-04
               6.4292932224231701E-03
               7.1190429390086962E-03
              -6.1192575560149436E-03
              -4.9986921820118586E-03
              -6.9298520587525777E-03
               1.3137733776865012E-02
              -1.0571511409916939E-03
              -9.7592774722207992E-03
               4.1329385906241894E-03
               3.4660153370199105E-03
              -4.1541207943492408E-03
              -7.3753608261241960E-03
              -1.0788147082027182E-02
              -3.1525624577207370E-03
              -3.3368418374519629E-03
               2.1051703023405737E-02
               1.3311927505755513E-03
              -2.1790700229005005E-03
              -3.5771928662066852E-03
              -7.4399616159088553E-03
               4.5374549882539854E-03
               1.7595253381256406E-04
              -3.7545985351277221E-03
               2.8689867805400683E-04
              -3.8562797088336593E-04
              -6.3572366991448081E-04
               1.8857827084501938E-03
              -5.3469958038200489E-03
               1.0710894260252369E-03
              -2.4461963470843282E-03
               3.9537459535613998E-03
              -7.1968698914806075E-04
               1.8025751663400390E-02
              -9.7486896748296224E-03
              -1.5937358891922888E-02
               1.2652727889712775E-02
              -4.3912518633022566E-03
              -8.0915852864178704E-03
              -5.0616216916496220E-04
               1.0403169205502186E-04
              -1.0152649235282115E-02
               2.0634456760192037E-02
              -4.8171368998162290E-03
              -5.0032218599064290E-04
              -6.2514134036891020E-03
               8.4436242378401385E-03
              -8.4516862400880067E-03
               2.2447449666712790E-04
               3.6590506129748394E-03
              -1.7140969357832908E-02
               8.0717732681466637E-03
               2.6022647502057759E-03
              -1.3083404877663194E-02
               7.0430736072328217E-03
               8.4408919507872222E-03
               7.3075311015070019E-04
               1.2513960236884760E-03
               1.3403220796035219E-02
              -8.9857169820242236E-03
               3.2844990831009863E-03
               5.2249174272480975E-05
               2.1414554318504599E-03
              -3.2368754450572477E-03
               5.0734811921297864E-03
              -5.4386060527620928E-03
               4.0516851654479116E-03
              -1.3624228248424694E-03
              -3.2494693357989980E-03
              -8.9578405785919243E-03
               4.9210961970485110E-03
              -5.4162820858208345E-03
              -2.5953110751160270E-03
               9.5666211656831070E-03
               3.5012260670953178E-02
               2.6453542466644459E-02
               1.1539475445208678E-02
               6.2210801076304726E-05
               3.8248287647625022E-03
               6.4008479775592170E-03
               9.6928198616785602E-03
              -2.4075070894067491E-03
              -2.4937399086018782E-03
               8.8658867381636620E-03
               1.9004056512182562E-02
               1.4745053395096720E-02
               9.3227365884654065E-04
              -4.4079499447370442E-03
              -2.9722581021893084E-03
               9.7073562918263202E-04
               1.6955594798039005E-03
              -3.5992034945090002E-03
               1.5159420513134057E-03
               5.8542830045151852E-03
              -4.5024140820588130E-04
              -7.1460596957639822E-04
               5.7058173715686424E-03
               6.5152562778908333E-03
               7.8078020530104658E-03
               6.5389197899102143E-03
              -1.2709566457643614E-02
              -3.7990610820125888E-04
              -2.9794676870910724E-03
              -3.1590296621443266E-03
              -2.8037574608290581E-03
              -6.2352031872190006E-03
              -3.9979568626927128E-03
              -9.7717945406679482E-03
              -1.0700018622485629E-02
              -6.5122436595868617E-03
               8.0037155900568417E-03
               1.1192078472088949E-02
               7.3636538094342049E-03
              -6.0935473633423186E-04
               3.0875122115962528E-03
               1.7748618887430405E-03
               1.9050298172864299E-03
              -6.2290180459734007E-03
              -3.2016378059668538E-03
               1.9398935963203308E-02
              -1.1435701451430658E-02
              -5.7926605980234882E-03
              -2.1135076144770445E-03
               4.7775284109249361E-03
               4.5966074878632930E-04
               1.5815514312005144E-03
               7.5153909317489092E-03
               4.7049256106555777E-03
               8.6430191748182675E-03
              -6.9253334674865647E-03
               3.3324520690188888E-04
              -5.0554419072278069E-04
              -5.1172531027467091E-03
               4.2256655426408177E-03
              -3.8839812216795000E-04
               3.9743034781824322E-03
              -8.1367444247776094E-05
               8.7619491571343539E-03
              -7.9841335534015859E-03
               8.6160540486261879E-03
              -3.2897157927628011E-03
               5.6916173579036333E-03
               7.1936324676588979E-03
               4.6817136126681537E-03
              -6.5545029534361829E-04
              -1.0712303998585858E-02
              -6.9275068083670009E-03
               6.2239908730195633E-03
               1.0162331635137613E-02
              -1.9883089674985338E-03
               4.5157215745912820E-03
               1.3862025865459828E-03
               7.8202029487191953E-03
              -1.0794067433744840E-02
               1.3716249322210616E-02
               7.4295015266570783E-05
              -7.8635702235363147E-03
              -3.2920712148488919E-03
              -1.2256231835299641E-04
               8.7460883919911400E-03
              -1.6861110933748160E-03
              -1.7732574672749207E-03
               5.6858041942054538E-03
              -6.9017250592301677E-03
              -6.8383585671468747E-03
               1.6536850605976726E-02
              -1.4536657745938856E-02
              -5.1569213731391342E-03
               3.3052148464939629E-03
               2.5804394627676505E-03
               4.1897646326760300E-03
              -8.4367254192597371E-03
              -3.1421097103257007E-03
               7.7431344312338304E-03
               4.9480441565899307E-04
               1.0441065448207770E-03
              -3.9687940393821636E-03
               3.4894063136797120E-03
               5.0291107529449779E-03
               8.1119025176567012E-03
              -4.0571809483886424E-03
               2.9102719208203916E-03
               1.0014898765752827E-02
               1.5189451149826747E-03
              -1.8359230029345581E-03
              -2.3217872017952134E-03
               2.7574268019529974E-03
               3.9534541230438341E-03
               1.5679265459105909E-04
               8.8779530027168849E-03
               5.5483991190804459E-03
               3.2065130551356289E-03
               1.1415665694353106E-03
              -3.1974411575012929E-03
               5.7345613494187257E-03
               9.1662444522741110E-03
               2.3730115465082531E-03
               1.3811574831440654E-03
               1.8101164709925027E-03
               6.1964191539223114E-03
               1.0176685207756407E-02
              -1.1965249708150529E-02
              -4.5722329991672523E-03
              -9.5986914655602439E-04
              -2.0152860614890545E-03
               2.1199646132038243E-03
               4.1445185553611681E-04
              -5.0371175074102057E-04
              -3.9603846469914161E-03
               1.6485791626016811E-02
               7.8432410036083358E-05
               5.7305330863546946E-03
               1.5196818674779442E-03
              -1.1834425376077166E-03
              -5.3656105005651586E-04
              -1.6112094639493806E-03
              -8.2292729530477151E-04
              -2.5827195841530239E-03
               5.4209580034765446E-03
               2.5979216169327059E-03
              -2.3866712483934212E-03
               3.9316232240337284E-04
              -4.1280435664580936E-03
              -1.8990433069134705E-03
              -2.2956635544353343E-02
               1.3804611132038624E-02
               3.3867922459487891E-03
               1.2656301239005142E-02
              -2.7842580774126505E-03
              -5.1997798563001522E-03
         &END THERMOSTAT_ENERGY
         &RNG_INIT
Wiener process for Thermostat # 1        1 F T T   1.0570193072987602E-01        2554248455.0        3733268398.0        2096963647.0         915983833.0        1292997779.0         989563289.0             12345.0             12345.0             12345.0             12345.0             12345.0             12345.0             12345.0             12345.0             12345.0             12345.0             12345.0             12345.0
Wiener process for Thermostat # 2        1 F T T  -5.0729818522276993E-01         187792199.0        1332764939.0        1272087322.0         282682701.0         988697858.0        4086000388.0        3692455944.0        1366884236.0        2968912127.0         335948734.0        4161675175.0         475798818.0        3692455944.0        1366884236.0        2968912127.0         335948734.0        4161675175.0         475798818.0
Wiener process for Thermostat # 3        1 F T T   8.9774137220556466E-02        3755061031.0        1753083868.0        1351179932.0         343881147.0        3312142877.0        1244557929.0        1015873554.0        1310354410.0        2249465273.0         994084013.0        2912484720.0        3876682925.0        1015873554.0        1310354410.0        2249465273.0         994084013.0        2912484720.0        3876682925.0
Wiener process for Thermostat # 4        1 F T T   2.1447125495896904E-01        2430503636.0         902227617.0        3039217662.0         205693714.0        2375800914.0        4220709598.0        2338701263.0        1119171942.0        2570676563.0         317077452.0        3194180850.0         618832124.0        2338701263.0        1119171942.0        2570676563.0         317077452.0        3194180850.0         618832124.0
Wiener process for Thermostat # 5        1 F T T  -7.4974817695318574E-01        3949927612.0        4293465109.0         224208328.0         677588237.0        2173092809.0        2514687022.0        1597262096.0        3906379055.0        3312112953.0        1016013135.0        4099474108.0         275305423.0        1597262096.0        3906379055.0        3312112953.0        1016013135.0        4099474108.0         275305423.0
Wiener process for Thermostat # 6        1 F T T  -2.3195632299180402E+00        4147399821.0         968438491.0         174961265.0         382156541.0        3672303660.0        2385050302.0          97147054.0        3131372450.0         829345164.0        3691032523.0        3006063034.0        4259826321.0          97147054.0        3131372450.0         829345164.0        3691032523.0        3006063034.0        4259826321.0
Wiener process for Thermostat # 7        1 F T T  -8.3038096976097500E-03        3725962017.0        3124905816.0        1692649901.0        3685368087.0         990134651.0        3321809881.0         796079799.0        2105258207.0         955365076.0        2923159030.0        4116632677.0        3067683584.0         796079799.0        2105258207.0         955365076.0        2923159030.0        4116632677.0        3067683584.0
Wiener process for Thermostat # 8        1 F T T   7.2955713326517235E-01        1426374835.0        1022225665.0        3431852557.0        2945126969.0        1347790872.0        2047858768.0        3281794178.0        2616230133.0        1457051261.0        2762791137.0        2480527362.0        2282316169.0        3281794178.0        2616230133.0        1457051261.0        2762791137.0        2480527362.0        2282316169.0
Wiener process for Thermostat # 9        1 F T T  -8.3876742673612970E-01        3633457436.0         863053678.0         665967915.0         928783000.0        4027924725.0        3556250224.0        3777646647.0        1837464056.0        4204654757.0         664239048.0        4190510072.0        2959195122.0        3777646647.0        1837464056.0        4204654757.0         664239048.0        4190510072.0        2959195122.0
Wiener process for Thermostat # 10       1 F T T  -6.7138423863751628E-01        3282585865.0         909372753.0         488063086.0        2442536289.0         174422437.0         477575080.0        4215590817.0        3862461878.0        1087200967.0        1544910132.0         936383720.0        1611370123.0        4215590817.0        3862461878.0        1087200967.0        1544910132.0         936383720.0        1611370123.0
Wiener process for Thermostat # 11       1 F T T  -7.2169956836733329E-02        3039538231.0          25912629.0        1608189467.0        1823124278.0        2331127605.0        2449500504.0        1683636369.0         362165168.0         814316280.0         869382050.0         980203903.0        2062101717.0        1683636369.0         362165168.0         814316280.0         869382050.0         980203903.0        2062101717.0
Wiener process for Thermostat # 12       1 F T T  -6.7722400494670465E-01        2762226669.0        4262778377.0        2250707948.0        3120407528.0        3704866228.0        1185520965.0         272317999.0         166758548.0         310112982.0         201045826.0        1680231254.0         118290799.0         272317999.0         166758548.0         310112982.0         201045826.0        1680231254.0         118290799.0
Wiener process for Thermostat # 13       1 F T T  -7.3817531449270457E-01        3689403510.0         367299738.0        3636386471.0        1925893934.0        3355800516.0        3520562622.0        2245755202.0        1652682525.0        2865544364.0         721509566.0         209733568.0         592362218.0        2245755202.0        1652682525.0        2865544364.0         721509566.0         209733568.0         592362218.0