 # Version information for this restart file 
 # current date 2024-12-10 19:57:45.131
 # current working dir /home/ndv3235/comp-lab-class-2024/Week12-IntroAIMD/Run_Proton
 # Program compiled at                              Sat Dec 12 18:27:15 EST 2020
 # Program compiled on                                         cs001.nyu.cluster
 # Program compiled for                                                nyu-intel
 # Source code revision number                                       git:8c64c6e
 &GLOBAL
   PRINT_LEVEL  LOW
   PROJECT_NAME proton_aimd_1ns_every0.5f
   RUN_TYPE  MD
   WALLTIME 21600
 &END GLOBAL
 &MOTION
   &GEO_OPT
     OPTIMIZER  BFGS
     MAX_ITER  100
     MAX_DR     3.0000000000000001E-03
     &BFGS
     &END BFGS
   &END GEO_OPT
   &MD
     ENSEMBLE  NVT
     STEPS  2000
     TIMESTEP     4.9999999999999994E-01
     STEP_START_VAL  2000
     TIME_START_VAL     9.9999999999998226E+02
     ECONS_START_VAL    -1.1026316107807854E+03
     TEMPERATURE     3.0000000000000000E+02
     &THERMOSTAT
       TYPE  GLE
       REGION  MASSIVE
       &GLE
         NDIM  5
         A_SCALE     1.0000000000000000E+00
         A_LIST     1.8595758612559999E+02    2.7263853498399998E-01    1.1526100454610001E+01   -3.6414578262600003E+01 \
             2.3173375816020001E+02
         A_LIST    -2.7809524712060002E-01    8.5951591808710006E-05    7.2189048017650004E-01   -1.9844539343859999E-01 \
             4.2409257583420001E-01
         A_LIST    -1.4825808131210000E+01   -7.2189048017650004E-01    1.3590902121280000E+00    5.1498896280349999E+00 \
            -9.9949268450990001E+00
         A_LIST    -1.0372189126880000E+01    1.9844539343859999E-01   -5.1498896280349999E+00    2.6661910891169999E+01 \
             1.1507715495310000E+01
         A_LIST     2.1801346360420001E+02   -4.2409257583420001E-01    9.9949268450990001E+00   -1.1507715495310000E+01 \
             3.0958394565589998E+02
         &THERMOSTAT_ENERGY
              -1.7207258238464485E-04
               1.1958838710805957E-03
              -4.2447980370850652E-03
               4.4046952339246801E-03
              -1.2965693577197268E-02
               6.6718868553021756E-03
              -8.2435237736882031E-04
              -5.2738486714694931E-03
               7.8036754362222046E-03
               3.5414995513561678E-03
               1.0286316136813470E-02
               3.1955555524841401E-03
              -1.1537312017467376E-02
              -5.1621366374051776E-03
              -9.3330465998867139E-04
              -1.9276679357221711E-03
               9.6383963260380165E-03
              -7.9992951460800127E-03
              -5.1488569474227876E-04
              -3.3999042179876280E-03
               5.9604002443037888E-04
               6.7956031927061920E-03
              -1.1257675182021623E-02
              -3.5619910370337628E-03
              -1.2032054576725643E-03
              -7.2294843716624686E-03
               1.0935380456462933E-02
              -2.8455197093962316E-04
               4.8083240033306648E-03
               2.3884336857396961E-03
               3.2147233330517881E-02
               9.4214367237252569E-03
               8.3958714936433892E-03
               9.7444654622458726E-03
               6.1682860523260396E-03
               7.5320811012521199E-03
              -4.7271036927267118E-03
              -3.6469854141435850E-03
              -3.8564733332749086E-03
               1.6967721943176633E-03
               5.2213206653755947E-03
              -7.2396633983380330E-03
               4.3256991022598973E-03
               2.5839647294978265E-03
               2.9133515085100477E-03
               3.1814836692282307E-03
              -4.4808494112148741E-03
               1.1654828762575833E-02
               2.1810085008127024E-03
               3.1519020556856183E-03
               4.8443039130599700E-03
              -5.5448052793701883E-03
              -8.5888271022284976E-04
               5.3382520919535454E-03
              -9.1761609873341234E-03
              -1.8865953369540413E-03
              -3.1654909077068720E-04
              -6.3862704213546936E-03
               5.7798984892080581E-03
               8.7025662681696463E-03
              -3.5587862546457736E-03
              -8.1038222899303721E-04
               1.1613024843738162E-02
              -4.7133928847582210E-03
              -3.1827116943681211E-03
               2.2861060947561782E-03
              -7.2182084055060439E-03
               3.1115271294143692E-03
               1.2857604005458231E-02
              -1.6821638117081074E-03
              -9.3934490348206549E-03
               6.1022089720219799E-03
               3.3504120892200703E-04
               4.2684757936329570E-03
               6.9779148927997690E-03
              -1.6855331563901895E-02
               1.2969643533407932E-02
               7.1283037740602784E-03
               5.0125914008338794E-03
              -7.2179000158486125E-03
              -2.4717577984621564E-03
              -3.9974515272228417E-03
               2.3693637023604382E-03
               1.8895737270308347E-04
               3.7732876493679515E-03
               8.5307310027316549E-03
              -8.5638710728586677E-03
              -8.1246455190085096E-03
              -3.2250934843367843E-03
               3.3242451219610419E-03
               1.3880750597490646E-04
              -9.8322916768681275E-03
               6.0930007797465322E-04
              -8.5066118968104530E-03
              -1.8339248822125992E-03
              -4.1833589670133475E-04
               2.3990672668912352E-03
               2.5433257173523818E-03
               1.0094668137621594E-02
               7.2704918365315042E-04
              -4.4742079603504233E-03
              -6.2090019029147981E-03
               3.0848820959119270E-04
              -7.6298790528719698E-03
               5.7334171958081191E-03
               1.4603701162129527E-02
               3.5747515828278673E-03
              -5.1480342726627978E-03
               8.2878173893269104E-03
              -6.6631982024948477E-03
               2.5039168635149697E-03
               9.8670719285588685E-03
              -5.5575794599714203E-03
               3.7854384784388575E-03
               5.7678395373792534E-03
              -1.6493000089327064E-03
              -4.8849361047443663E-04
               7.0098754020783119E-04
               5.1035408627826389E-03
               1.9379086885848613E-04
              -3.9208722757909419E-03
               2.2411445407768426E-04
               1.4566870286261555E-02
               7.4950718579398813E-03
              -4.5877896153971561E-03
              -1.4625744593908462E-02
               7.2314230910842745E-03
               2.0960055946900274E-03
              -1.3904344169465789E-03
               7.0858693015225967E-03
              -7.3058527293332742E-03
               3.0109211253642114E-03
              -4.1486151101173272E-03
               4.2297270249384471E-03
              -2.5046151472410162E-03
               2.5841870754801629E-03
               7.4278201063796056E-04
              -1.0054855794132820E-02
              -3.7356322916060219E-03
              -6.0082488844242473E-03
              -3.9906213118597192E-03
               9.2797061786061702E-03
               1.0135542130922073E-02
              -3.1930904043329959E-03
              -5.1224856143596851E-03
              -5.8637182995861540E-03
               8.3787296415762649E-04
               5.3444374198708469E-03
              -4.0601067872922860E-03
              -1.2419652859221369E-03
              -1.1119103956217746E-02
               3.6586755771203143E-03
               6.4944247169996952E-04
              -1.5903986834552770E-03
               1.0617447214744018E-02
              -1.2649109876724314E-04
               7.9571509691468180E-03
               4.5269855988193880E-03
              -9.9223301962708243E-03
               1.0336753937001495E-04
              -7.3467047462470961E-03
               4.1844887170780689E-03
               3.2445708313240812E-03
               3.0425940642136713E-04
               1.1957688880213835E-02
               1.7928056227058266E-02
               8.1824219473650758E-03
              -2.5446071913871403E-02
              -9.8411664805776364E-04
              -7.4040637294996582E-04
              -2.9130553635654324E-03
              -3.6615192372175830E-03
              -1.6693974424287234E-03
              -3.3857187638258513E-03
              -3.6526137429128275E-03
               3.6216171412990750E-03
              -4.2168799786803379E-03
              -2.6349037167090719E-03
              -9.0257584850431268E-04
               1.0074748588726036E-02
              -1.1971541117439012E-03
              -8.9651358234035068E-04
               8.0087186486451391E-03
              -2.5335989584887517E-02
               1.3954440424446062E-02
               1.9732483303067528E-03
              -2.0472681982000480E-03
              -4.4523547545039449E-03
              -3.2539064905854499E-03
               5.4235515949425201E-04
               8.5011341062840367E-04
              -3.5773240860748241E-04
              -9.6009433023525811E-03
               1.6121891583897648E-02
               2.0806404830299666E-03
              -9.5686540282361888E-03
               1.8762128109981254E-03
               3.8816987061551095E-03
               1.7530004975191342E-03
               9.2107467973053013E-04
               1.0797563946803206E-03
              -1.1095303221071717E-02
               1.2988125572641312E-03
              -4.2199579142030976E-03
              -3.0171610140582966E-03
               7.7726122660650623E-03
              -1.5570750769481479E-03
              -6.3974986306033707E-04
               7.4006426165567078E-04
               1.1516592793521633E-03
               6.0005888191395221E-03
              -8.7531147280039672E-03
               7.4176785055903496E-03
               4.4302647621257693E-03
               1.7334686204498525E-03
              -3.5275904425788509E-03
              -1.2621617590053941E-02
               2.7214038804562512E-03
               3.7284996379900234E-03
              -4.1060270303845290E-03
               4.3614226089834498E-03
              -8.1653058289550932E-03
               2.2198116993252699E-03
               9.0509317361244131E-04
               6.9220772813038348E-04
              -3.3776568301503145E-03
               1.5940731781617496E-03
               4.6415385415467915E-03
              -4.3382953594410505E-03
              -1.6672895204281233E-03
              -7.5704096258010257E-03
               1.9695201289337920E-05
               7.7599935318096724E-03
              -3.5264687124777695E-03
               2.0880643686327126E-03
               1.5906804390408669E-04
              -3.3673899055027576E-03
               3.9879160972171182E-03
               6.2719551896091089E-03
               3.4406317415300691E-03
               3.5324081909313514E-03
              -8.7554084085417275E-03
               4.4897610934253808E-04
              -7.5084868160622191E-04
               4.1000325626714042E-03
               1.6033433845713209E-03
               1.2940172775514605E-03
              -2.5217816560111977E-04
              -6.0531900925962922E-05
              -4.6249785683583752E-03
               3.1536819931457191E-03
              -7.0053274200921325E-03
              -5.3842829706913804E-03
              -4.3760253449498443E-03
               2.6101560419948830E-03
              -2.3877014658331822E-03
               2.1867978867615046E-02
              -1.0293284320831198E-02
               1.2234656708968944E-02
              -2.6723148484797853E-02
               2.7147276995256577E-02
               8.4567011568421474E-03
               4.1146249114327980E-03
               6.7980786895486169E-03
               8.3814418415968372E-03
              -1.1631320400977417E-02
               5.9654201836576437E-03
              -6.7218433393423796E-03
              -4.1874427863003993E-03
               1.4523903314712204E-02
               1.3357949770179975E-03
              -5.1804340854644517E-03
               9.7828091179454524E-04
               1.2910147893884449E-02
               2.4299319193503183E-03
               4.6159513667794075E-04
              -2.4369528158660343E-02
               1.7018597294562732E-02
              -5.1700169610401827E-03
               4.1985526557754508E-03
              -3.7137034393364392E-03
               1.6191169255953387E-03
              -4.3131544306790623E-03
              -6.4616467814653687E-03
               2.5154309673157183E-03
              -2.2769950730120022E-03
               4.2257452211456829E-03
              -9.0321871383693807E-03
              -6.7808597559898811E-03
              -2.8427231427955472E-03
              -4.8168369650825797E-04
               7.2562831063076923E-03
              -5.2817514195926929E-04
              -2.3631582280111518E-03
               2.8289812609805223E-05
               1.3718433727323204E-02
              -3.0846325631066196E-04
              -3.5236141832950437E-04
              -5.8977636003930568E-03
              -3.3760208570340457E-03
              -1.4051365098056681E-02
               6.4105037527715505E-03
               2.0542175172886049E-02
              -4.9069587544433926E-03
               1.3391196309640052E-02
              -1.0015248537800253E-02
              -2.4482674695720324E-03
               2.7585727489741300E-03
               1.9783332899937444E-03
               1.3342595064889677E-02
              -7.5495920986195017E-05
              -1.5788404092672074E-02
              -5.4158162600708307E-03
               1.9736188084660020E-02
              -5.9078976428161003E-03
               6.6543193366062590E-03
               8.6959594762067351E-03
              -3.2994341311059171E-04
              -4.2168509181632749E-03
              -1.1922994034920139E-04
               1.3164093210954891E-02
              -1.6642246399459236E-02
              -8.0909446886401823E-03
               1.3233965967333108E-02
              -1.0235067830065064E-03
               4.1791282142212248E-03
              -1.6914366233912452E-03
               2.0258285021822245E-03
              -5.9914993282427316E-03
              -1.0234315324791828E-04
              -8.0958506974473552E-04
              -9.2807357570477214E-03
               1.1810352967924348E-03
              -4.6138604772626123E-03
               1.1361486091633962E-03
               2.7924859218737882E-03
               1.0173144899680847E-02
               1.8891664394947783E-03
              -1.1149806436196043E-02
               1.1307493419433922E-02
              -7.0712550549802541E-03
               7.7858408993778504E-03
               2.4648173803870129E-03
              -2.4774601664003517E-03
              -3.9067923228785287E-03
               2.0790044018032766E-03
               8.5437066430652333E-04
              -7.0678902372191856E-03
              -5.2499794686786030E-03
               3.1041374261477715E-03
               7.8163609361766358E-03
               9.7469901609421993E-03
              -4.1955975224674813E-03
              -4.5892119622588691E-03
              -1.2468369543736514E-02
               1.0424455959097812E-02
               6.0243487500177741E-03
              -1.4639032131504554E-02
              -4.1167035381047762E-03
               1.2038928078630879E-02
              -5.2071268826399874E-03
              -8.6084073385907060E-03
              -1.2473831464291426E-02
               9.3152047865051270E-05
              -7.0145211029235700E-03
               1.7685231460981336E-02
               5.3449959702950431E-03
              -4.3635319079262987E-03
              -1.8089247485323539E-03
              -9.6258815775688272E-03
               3.7409664353641164E-03
              -5.4147817630167397E-04
               1.9149034683360467E-03
               2.3861503943314929E-03
              -1.5134637064310869E-03
               1.9735334408790125E-03
               4.8799363826951807E-03
              -1.4993748679329269E-02
               1.9304098086411047E-03
               1.9984326490741177E-04
               5.5920373879248409E-03
               4.0088519218871941E-03
               1.5622244117398978E-02
              -1.6942084229538502E-02
              -1.8479009804205460E-02
               4.5541091543615788E-03
               6.4284726712526040E-03
              -7.2440682387594916E-03
               1.7545979903477386E-03
               1.2367953178111636E-03
              -7.1558218348600931E-03
               1.6300945893990098E-02
              -1.9403603973168005E-03
              -6.7022877960091496E-03
              -9.0838369833138471E-04
               8.7133894903117549E-03
              -1.2411695162360722E-02
               1.5181299176548107E-03
               3.4103790722781776E-03
              -3.2275013026663815E-02
               1.3732822026519056E-02
               2.5259938340302522E-03
              -9.1519580640001749E-03
               2.9589787192983458E-03
               1.6539846772026318E-02
              -3.7048908002129317E-03
               4.4336892432658330E-03
               1.1690398430246529E-02
              -7.7230371481802939E-03
              -4.9322325752412357E-03
               5.4213017284311816E-03
               3.7980835601315551E-03
               3.4975820742069214E-03
               5.7828600796809510E-03
              -4.1421172693732822E-03
               1.3492178242428968E-03
              -3.3755574361278959E-03
              -7.2980330414567978E-03
               3.5021970190117543E-03
              -4.8347457417336273E-03
              -3.4804616923609557E-03
              -3.3080356034602761E-03
               4.9814270973896043E-03
               3.5260815461988185E-02
               3.2211834701352360E-02
               7.4527831883124639E-03
              -3.2742292933539234E-04
               4.2469187952512292E-03
               6.1167323059151835E-03
               1.3538200469901363E-02
              -6.1792352812250551E-04
              -9.9031241366403632E-03
               1.2909260872282577E-02
               2.1930156746035417E-02
               1.1550444396636760E-02
               1.5133026523284992E-03
              -4.4192390167350683E-03
              -4.0609452202008444E-03
               6.2378177901465034E-03
               3.6478185302770607E-03
              -1.5005557155655599E-02
               3.1373710478851784E-04
               2.7940624026273867E-03
               2.0283559125210738E-03
               2.0903588214173400E-03
               4.9760373607485526E-03
               3.6210477621350609E-03
               1.3335250808343873E-02
               6.3357467198892486E-03
              -8.4617444755877048E-03
              -1.0138395824125285E-03
              -7.4905144920555267E-03
               4.0474894193171891E-03
              -2.7663569863821760E-04
              -3.5245041928232235E-03
              -3.3243240657215467E-03
              -1.7313582755499581E-02
              -8.6577801970042032E-03
              -4.3814810178912054E-03
               6.5321326981728385E-03
               1.4620021375037786E-02
               8.6885094750170696E-03
               6.1529717503273402E-05
               4.2462182924583678E-03
              -1.7522354518750567E-04
              -2.3944610874703274E-04
              -6.3875727028086951E-03
              -3.7923322631884120E-04
               1.7556715353215652E-02
              -1.2149398346627000E-02
              -2.6287858808787040E-03
              -7.9665124831353532E-03
               2.1901922986699838E-03
              -1.0452824180994312E-03
               3.3527873996009247E-03
               1.4682891623517012E-02
               3.9638661129810064E-03
               9.7401946547015297E-03
              -1.1381163828989497E-02
              -2.4122063480991537E-03
              -3.0469588162575041E-03
              -4.7410491896620810E-03
               2.9183455471082065E-03
               9.3427356395804867E-04
               3.6869488573200708E-04
               6.5083789733618195E-04
               3.3550137634148548E-03
              -9.0733231187652055E-03
               1.8701223732919253E-02
              -4.1628363059926380E-03
               6.6256565335530331E-03
               5.8288603834301313E-03
               1.3339459025145319E-03
               2.6323873611567623E-04
              -8.7940943724668461E-03
              -8.0403418307933607E-03
               1.1256911899022797E-02
               1.0740951633140131E-02
              -5.1386982073101497E-03
               6.6324910533582925E-03
               5.0958455540126750E-03
               9.2771774839211611E-03
              -1.5724728482211524E-02
               1.5158961181157775E-02
               7.7994581750552797E-03
              -1.2284253303122777E-02
              -4.5395422103549875E-03
               7.6775245058350824E-04
               8.0701532364303528E-03
              -3.1867188766582163E-03
               6.6598790027217825E-04
               5.6701233180885165E-03
              -8.7292769066604162E-03
              -9.5100022428829933E-03
               1.5195073155427846E-02
              -1.6507899899653816E-02
              -7.5107371861484022E-03
               2.2345446748632332E-03
               1.2799208115114023E-03
               8.5070358018764173E-03
              -8.5863644674411838E-03
              -6.5905425294272421E-03
               7.3566347553035236E-03
               4.1262238865305790E-03
               9.9163228737716535E-04
               7.4201426104574778E-05
               2.2771991153792493E-03
              -1.1996141694064258E-03
               1.3268368907368924E-02
              -2.2765786991852423E-03
              -3.0367503660488069E-04
               8.3257602215247601E-03
               5.3529949914149577E-03
              -5.9776628021762429E-03
               3.5033236806708335E-03
               4.2143348204670538E-03
               4.2674577193801654E-03
              -2.5140084397702231E-03
               1.3131053836135170E-02
              -8.7054814909604244E-05
               4.5420693785248600E-03
               4.2223480812848451E-03
              -4.0249248257194573E-03
               3.5367388232266563E-03
               8.4376846135297088E-03
              -3.2075968769107325E-04
               6.9321315455786892E-04
               3.6434240379332036E-03
               7.0540590896302716E-03
               7.5020651173936994E-03
              -8.5739201223185620E-03
              -2.4498206401426313E-03
              -5.9929730616787365E-04
              -1.5600868964452865E-03
               1.6116711907118602E-03
               1.4033930866408860E-03
              -5.3858121693930328E-03
               1.5036573003848193E-03
               1.5835344248092503E-02
               3.2183140086476116E-03
               1.9711270197578217E-03
               1.5020202732415270E-04
               1.5870287818570787E-03
              -3.2040237685014041E-04
              -6.5390754892105194E-03
               7.1919551184123900E-03
              -3.7079588050767860E-03
               7.4608143250118396E-04
              -4.0259645003732047E-04
               3.0758475385952661E-03
              -1.8474980526467935E-03
               1.8979282544155103E-03
              -3.3530570438209699E-03
              -1.7313447057212945E-02
               8.9215133383356640E-03
               6.7048844334043605E-03
               1.2464655845924261E-02
              -2.6041776446429558E-03
              -1.5152716906493317E-03
         &END THERMOSTAT_ENERGY
         &RNG_INIT
Wiener process for Thermostat # 1        1 F T T  -4.3866331554119464E-01        3463026290.0         996283881.0        3077134961.0        1575188103.0         352198642.0        1255594993.0             12345.0             12345.0             12345.0             12345.0             12345.0             12345.0             12345.0             12345.0             12345.0             12345.0             12345.0             12345.0
Wiener process for Thermostat # 2        1 F T T   6.1664168869435698E-01         581397078.0        3867423482.0         327967633.0        1486938113.0          26429212.0        4093174459.0        3692455944.0        1366884236.0        2968912127.0         335948734.0        4161675175.0         475798818.0        3692455944.0        1366884236.0        2968912127.0         335948734.0        4161675175.0         475798818.0
Wiener process for Thermostat # 3        1 F T T   2.0518696979926636E+00        1062843694.0        3278483557.0        2630284801.0         342499437.0         508306288.0         570022504.0        1015873554.0        1310354410.0        2249465273.0         994084013.0        2912484720.0        3876682925.0        1015873554.0        1310354410.0        2249465273.0         994084013.0        2912484720.0        3876682925.0
Wiener process for Thermostat # 4        1 F T T   8.6483655468840070E-01         858988242.0         878260951.0        1341305949.0        1687735708.0        1261279903.0        1615458589.0        2338701263.0        1119171942.0        2570676563.0         317077452.0        3194180850.0         618832124.0        2338701263.0        1119171942.0        2570676563.0         317077452.0        3194180850.0         618832124.0
Wiener process for Thermostat # 5        1 F T T  -7.2623034709222295E-02        3503246388.0        3640749438.0          80160185.0        4050541932.0        1809135917.0         826251710.0        1597262096.0        3906379055.0        3312112953.0        1016013135.0        4099474108.0         275305423.0        1597262096.0        3906379055.0        3312112953.0        1016013135.0        4099474108.0         275305423.0
Wiener process for Thermostat # 6        1 F T T   2.6094790259997280E+00        1648662560.0         298744963.0         276080774.0        3452610735.0        2129471280.0        4132861437.0          97147054.0        3131372450.0         829345164.0        3691032523.0        3006063034.0        4259826321.0          97147054.0        3131372450.0         829345164.0        3691032523.0        3006063034.0        4259826321.0
Wiener process for Thermostat # 7        1 F T T   1.3118545096244869E+00        4025695046.0        1027992126.0        3217973651.0        2155997853.0        1780084567.0        1907814450.0         796079799.0        2105258207.0         955365076.0        2923159030.0        4116632677.0        3067683584.0         796079799.0        2105258207.0         955365076.0        2923159030.0        4116632677.0        3067683584.0
Wiener process for Thermostat # 8        1 F T T   7.1524753302764935E-02        2631328646.0          66904958.0        3191287979.0        3452779318.0        2048731614.0        3759050068.0        3281794178.0        2616230133.0        1457051261.0        2762791137.0        2480527362.0        2282316169.0        3281794178.0        2616230133.0        1457051261.0        2762791137.0        2480527362.0        2282316169.0
Wiener process for Thermostat # 9        1 F T T  -1.0980465140389938E-01        1977246253.0        1903248984.0        3508262652.0        2466127224.0         300284070.0         767034957.0        3777646647.0        1837464056.0        4204654757.0         664239048.0        4190510072.0        2959195122.0        3777646647.0        1837464056.0        4204654757.0         664239048.0        4190510072.0        2959195122.0
Wiener process for Thermostat # 10       1 F T T   1.9081094228418396E+00         405211316.0        3215252316.0        3029076279.0        3899943421.0         886526099.0         586515832.0        4215590817.0        3862461878.0        1087200967.0        1544910132.0         936383720.0        1611370123.0        4215590817.0        3862461878.0        1087200967.0        1544910132.0         936383720.0        1611370123.0
Wiener process for Thermostat # 11       1 F T T  -5.3344054384789541E-01        3450000619.0        1059116059.0        3916567347.0         635813254.0        3901690603.0        3696418470.0        1683636369.0         362165168.0         814316280.0         869382050.0         980203903.0        2062101717.0        1683636369.0         362165168.0         814316280.0         869382050.0         980203903.0        2062101717.0
Wiener process for Thermostat # 12       1 F T T   8.9448207812820613E-01        1696219248.0        1783691089.0        1685873716.0        1285524479.0        2726140602.0        4269630803.0         272317999.0         166758548.0         310112982.0         201045826.0        1680231254.0         118290799.0         272317999.0         166758548.0         310112982.0         201045826.0        1680231254.0         118290799.0
Wiener process for Thermostat # 13       1 F T T  -1.0297203341400047E+00        4019568919.0        3484227797.0         947541978.0        4224885921.0        2127446270.0         502669027.0        2245755202.0        1652682525.0        2865544364.0         721509566.0         209733568.0         592362218.0        2245755202.0        1652682525.0        2865544364.0         721509566.0         209733568.0         592362218.0