 # Version information for this restart file 
 # current date 2024-12-10 19:57:35.443
 # current working dir /home/ndv3235/comp-lab-class-2024/Week12-IntroAIMD/Run_Proton
 # Program compiled at                              Sat Dec 12 18:27:15 EST 2020
 # Program compiled on                                         cs001.nyu.cluster
 # Program compiled for                                                nyu-intel
 # Source code revision number                                       git:8c64c6e
 &GLOBAL
   PRINT_LEVEL  LOW
   PROJECT_NAME proton_aimd_1ns_every0.5f
   RUN_TYPE  MD
   WALLTIME 21600
 &END GLOBAL
 &MOTION
   &GEO_OPT
     OPTIMIZER  BFGS
     MAX_ITER  100
     MAX_DR     3.0000000000000001E-03
     &BFGS
     &END BFGS
   &END GEO_OPT
   &MD
     ENSEMBLE  NVT
     STEPS  2000
     TIMESTEP     4.9999999999999994E-01
     STEP_START_VAL  1999
     TIME_START_VAL     9.9949999999998238E+02
     ECONS_START_VAL    -1.1026316107807854E+03
     TEMPERATURE     3.0000000000000000E+02
     &THERMOSTAT
       TYPE  GLE
       REGION  MASSIVE
       &GLE
         NDIM  5
         A_SCALE     1.0000000000000000E+00
         A_LIST     1.8595758612559999E+02    2.7263853498399998E-01    1.1526100454610001E+01   -3.6414578262600003E+01 \
             2.3173375816020001E+02
         A_LIST    -2.7809524712060002E-01    8.5951591808710006E-05    7.2189048017650004E-01   -1.9844539343859999E-01 \
             4.2409257583420001E-01
         A_LIST    -1.4825808131210000E+01   -7.2189048017650004E-01    1.3590902121280000E+00    5.1498896280349999E+00 \
            -9.9949268450990001E+00
         A_LIST    -1.0372189126880000E+01    1.9844539343859999E-01   -5.1498896280349999E+00    2.6661910891169999E+01 \
             1.1507715495310000E+01
         A_LIST     2.1801346360420001E+02   -4.2409257583420001E-01    9.9949268450990001E+00   -1.1507715495310000E+01 \
             3.0958394565589998E+02
         &THERMOSTAT_ENERGY
               4.6454827810397644E-04
               1.0274890804670631E-03
              -4.0446020556158639E-03
               4.2798804099308399E-03
              -1.2929275732764714E-02
               6.6439985335763835E-03
              -6.8994599849234390E-04
              -5.6731731883478105E-03
               7.9843141150822364E-03
               3.5560769162095007E-03
               1.0409046425448690E-02
               3.3159994859253044E-03
              -1.1973651666257412E-02
              -5.0898734292875239E-03
              -9.1279288096036255E-04
              -1.8690759426882872E-03
               9.6634051931456643E-03
              -8.0100730991223609E-03
              -6.9289758950477815E-04
              -3.8870222924237974E-03
               6.8833711148722789E-04
               6.7928710600817978E-03
              -1.2270084793608216E-02
              -3.0787432178035956E-03
              -1.5037254452003428E-03
              -6.7923702545230735E-03
               1.0864237864852999E-02
              -7.6572736244562495E-04
               4.9821373373976179E-03
               2.3223793066335721E-03
               3.2337844029076183E-02
               9.1634138215242467E-03
               8.2993512894695021E-03
               9.7639974186584308E-03
               6.1103965760843301E-03
               7.2180889674305759E-03
              -4.6708180642701293E-03
              -3.3452441214719751E-03
              -3.9636338128016552E-03
               1.6692645837084971E-03
               5.4593151352929446E-03
              -7.4250611126977645E-03
               4.0055763676925225E-03
               2.4620774432053084E-03
               3.1094292153878537E-03
               2.0191456834579859E-03
              -4.2412289216885697E-03
               1.1497396606746048E-02
               2.7996150134695806E-03
               3.4650587993954045E-03
               4.4559753841262595E-03
              -5.7885864399669891E-03
              -1.1145926527976727E-03
               5.4255647117198453E-03
              -9.1921644963495613E-03
              -1.5253794574891441E-03
              -2.2207750828120740E-04
              -6.3168743538283703E-03
               5.9577439763860932E-03
               8.7146566369547124E-03
              -3.4388133181384849E-03
              -9.1170349270238392E-04
               1.1675373249804824E-02
              -4.7636838445850507E-03
              -3.2116619333428008E-03
               3.8217594836816760E-03
              -7.2492042198959612E-03
               3.8659510532346210E-03
               1.2851463795980926E-02
              -1.8676260274105062E-03
              -9.2493825322573133E-03
               5.7675183459026200E-03
               3.7222838342473137E-04
               4.2050034821053727E-03
               6.9462405327546644E-03
              -1.5950224980722103E-02
               1.3592526831978868E-02
               7.6132252163862574E-03
               4.8090479263868460E-03
              -7.2427837268356152E-03
              -2.3006579835512572E-03
              -4.1126895932005929E-03
               2.5365219845631484E-03
               6.5730230878784405E-04
               4.0589081204577462E-03
               8.7318874385258309E-03
              -8.6247011536298955E-03
              -7.9315768256197870E-03
              -3.3618717780058913E-03
               2.1490878419750301E-03
              -1.1148105774615185E-04
              -9.6887618005809025E-03
               5.9515114938968230E-04
              -8.3887392703103827E-03
              -2.0228942108753778E-03
              -2.3410492462512468E-04
               2.2912973963942311E-03
               2.6550375110403570E-03
               9.0072002871971618E-03
               6.1920044906469372E-04
              -4.3392245893206548E-03
              -6.7202085328852326E-03
               2.7810855459294210E-04
              -6.6331141662005384E-03
               5.7906519666519173E-03
               1.4471044870021151E-02
               3.5687402890757906E-03
              -5.7274816062063832E-03
               8.3534645581900165E-03
              -6.6304739459349688E-03
               2.5168167105469063E-03
               9.6866668431810649E-03
              -5.1543468163638773E-03
               3.6009010096716325E-03
               5.7964560336219084E-03
              -1.7520571740602443E-03
              -1.1646155446323500E-04
               6.7371158685862042E-04
               5.1420591086919912E-03
               1.1584711150053930E-04
              -4.0458431552133920E-03
               9.3584952691713893E-05
               1.4458645012956003E-02
               7.3876621398396448E-03
              -4.2780354530135845E-03
              -1.4359128803363158E-02
               6.7364116244943220E-03
               1.9181344865686865E-03
              -1.2956407568821974E-03
               6.6580207303067801E-03
              -7.4557830427249066E-03
               3.0579438156873111E-03
              -4.1761699132663371E-03
               4.3724641031525052E-03
              -2.0739800055741358E-03
               2.5872190522067086E-03
               7.7552581065065977E-04
              -1.0157046039973654E-02
              -4.0033180287647775E-03
              -5.9303757523843830E-03
              -2.7022961768925846E-03
               8.9521815945502615E-03
               1.0231933215026424E-02
              -3.7412719600329984E-03
              -5.5845114146624627E-03
              -5.8402245600456485E-03
               3.3015728805465530E-04
               5.3608470278602776E-03
              -4.0266524014870861E-03
              -1.4693394427233426E-03
              -1.1803935806370406E-02
               3.6907950449573687E-03
               6.5404300826252932E-04
              -1.4257703512181802E-03
               1.0579136193175059E-02
              -4.8659145922646868E-04
               8.3307145421423600E-03
               4.5716772988715791E-03
              -1.0184472274571029E-02
               2.6986590815964074E-04
              -7.2765480351027288E-03
               4.3319485753173098E-03
               2.9274796270239898E-03
               2.9327892964857178E-04
               1.3381688003595377E-02
               1.8744349639030426E-02
               8.1053761892421507E-03
              -2.6669039316973366E-02
              -8.5472771787830151E-04
              -7.3285804494905953E-04
              -3.4858762322657875E-03
              -3.6259326349438220E-03
              -1.6189059555034345E-03
              -3.4085663313895525E-03
              -3.7255447897959386E-03
               3.6023659354313376E-03
              -4.2333154769187472E-03
              -2.6464639940741133E-03
              -7.8564304473497878E-04
               9.9955412992163498E-03
              -1.3309177259759417E-03
              -7.9629016105891540E-04
               8.2039303862584383E-03
              -2.4970567974658742E-02
               1.4012433753472799E-02
               1.0145323125495260E-03
              -1.7702500646176354E-03
              -4.7018384360172786E-03
              -3.7171334502523758E-03
               5.9425781217284184E-04
               7.0191182640314681E-04
              -2.8589486212599979E-04
              -9.8125186815459908E-03
               1.6285465201666675E-02
               1.5274540641066748E-03
              -9.9202360253251801E-03
               1.7063559717122277E-03
               4.1230768354196213E-03
               1.5855839280486798E-03
               1.6042011835485782E-03
               1.6839307349489699E-03
              -1.0945378448035481E-02
               1.4800242701369427E-03
              -3.9933775537080484E-03
              -3.0082333117372505E-03
               7.2003886882742035E-03
              -1.7305775327554709E-03
              -6.5861483789404372E-04
               7.2614177888319213E-04
               1.2231505370915957E-03
               6.1509433613323641E-03
              -8.7775910994743779E-03
               7.2522900039514041E-03
               4.4108194925486233E-03
               1.4430697652853162E-03
              -3.1083248203133567E-03
              -1.2625432922449715E-02
               2.7757855029492597E-03
               3.9024058460003525E-03
              -4.0860112918278593E-03
               4.4906044778177242E-03
              -8.2758355893739685E-03
               2.0216132167955934E-03
               6.6665362211115048E-04
               2.6970400244486067E-04
              -3.4291705941487324E-03
               1.2826258003961382E-03
               4.7258943879547217E-03
              -4.5236926802817469E-03
              -1.7258637140104827E-03
              -7.5424831130180645E-03
              -3.1943858544143401E-05
               7.7491331586530396E-03
              -3.5106724127525590E-03
               2.7460570283585812E-03
              -2.9810039197472734E-04
              -3.3683903091267461E-03
               3.9821146994465338E-03
               6.3132405795934890E-03
               3.5274595240351188E-03
               3.5510977816405982E-03
              -9.2415061676093084E-03
               2.2731494943241761E-04
              -2.1327710222083488E-03
               4.1281683816989934E-03
               1.4647748476449634E-03
               1.1943394806179038E-03
              -2.2102233685020780E-04
              -1.0771330489597165E-05
              -4.5107981521587560E-03
               3.3424770848038176E-03
              -7.0581060511404753E-03
              -5.5524491659823287E-03
              -4.7504532048215850E-03
               2.9069102569328773E-03
              -2.5661925623001978E-03
               2.1798602761026350E-02
              -1.0457959818354963E-02
               1.2292017177692981E-02
              -2.6190199799414098E-02
               2.7368044614276176E-02
               8.0042378809686687E-03
               4.4520677051304944E-03
               7.5549297478928294E-03
               8.3425126918105410E-03
              -1.1699909284151516E-02
               6.1111959775380052E-03
              -7.0722091202803051E-03
              -3.8349918716230249E-03
               1.4508591527508411E-02
               1.1659377111942549E-03
              -5.4059181433016596E-03
               1.0701166148950180E-03
               1.2880489684119473E-02
               2.4135880799546535E-03
               3.0476849061646723E-04
              -2.4170493311547494E-02
               1.6978385450101472E-02
              -5.5617859146148488E-03
               4.1927816392367057E-03
              -3.8734978509354307E-03
               1.9655348492063473E-03
              -4.2425438506736544E-03
              -5.6491188999666514E-03
               2.9627138440793464E-03
              -2.2033054699428139E-03
               4.8764010443548391E-03
              -9.0240183486287352E-03
              -6.7266696580981439E-03
              -3.6226730268377923E-03
              -5.0963596406454850E-04
               7.1499242037342484E-03
               1.3004791978044327E-04
              -2.2094500892619398E-03
               4.3541328200347300E-05
               1.3898847624568280E-02
               5.2995436024934152E-05
              -3.9257342257581945E-04
              -6.9439246884099252E-03
              -3.3846984082127941E-03
              -1.4165588071291637E-02
               6.4055743634605740E-03
               1.9750850780248002E-02
              -4.9771768337550709E-03
               1.2859768666589810E-02
              -9.9892397534702224E-03
              -2.4587431312869420E-03
               2.7591504177852319E-03
               2.2651934794622403E-03
               1.3382085976054742E-02
              -5.5235125516771221E-05
              -1.5917881708581525E-02
              -5.1049848893137302E-03
               1.9593552940587310E-02
              -5.6150482169021404E-03
               6.7799227833686840E-03
               8.9584726911680415E-03
              -9.3643411438755855E-04
              -4.2473689949658142E-03
              -1.4203398472319200E-04
               1.2385769699292913E-02
              -1.6918786311386685E-02
              -7.9552437326819436E-03
               1.3172164323307891E-02
              -1.6633131342120139E-03
               4.6301013908122812E-03
              -1.8546506475927388E-03
               2.1793706109720294E-03
              -5.9773057397884957E-03
              -1.3810547972126610E-04
              -9.4688800493935752E-04
              -9.1827317076752357E-03
               1.4614687045411293E-03
              -4.5298327953763838E-03
               1.2178792867277098E-03
               2.8356351207169364E-03
               1.0513405003667844E-02
               1.8828687658546000E-03
              -1.1091460966140436E-02
               1.1242475191453178E-02
              -6.6588966920778829E-03
               7.9962915697392809E-03
               2.6478281456128105E-03
              -2.5981426261802651E-03
              -3.9119148174402473E-03
               2.0088543892590452E-03
               1.2698619935451524E-03
              -7.4940672920660763E-03
              -5.2401584650642458E-03
               2.6351500553387064E-03
               7.6883693148361134E-03
               9.7431479925543223E-03
              -3.6310013477232777E-03
              -4.7135540207685093E-03
              -1.2498943009608361E-02
               9.0351038435444106E-03
               6.0229937791715440E-03
              -1.4868310892489144E-02
              -4.0042171312645071E-03
               1.1945666960815261E-02
              -5.5672946944000891E-03
              -8.8576120405351559E-03
              -1.2954041739078877E-02
               2.4338087520678507E-04
              -7.0087271059626520E-03
               1.7616438799015893E-02
               5.1741314493675998E-03
              -4.3990584601264100E-03
              -1.7948851465857518E-03
              -9.7160437201288304E-03
               3.7297915584192359E-03
              -4.1139776697841923E-04
               1.9318444362787740E-03
               2.3904731729682267E-03
              -1.5119356442760293E-03
               2.0884032607551826E-03
               4.9224574480406522E-03
              -1.5047356127414025E-02
               1.8284654686420154E-03
               2.1834407922705052E-04
               5.6797755755864350E-03
               4.2608586880267772E-03
               1.6120313304724184E-02
              -1.7338230786342404E-02
              -1.8269339634517396E-02
               4.5067313187965473E-03
               6.4585511177775732E-03
              -7.2341900034718501E-03
               1.7107057029951086E-03
               1.0032553399550535E-03
              -7.0437664747689550E-03
               1.6801584889733181E-02
              -1.9351600850206244E-03
              -6.6553841784734976E-03
              -8.5313591347895956E-04
               8.8043296630322138E-03
              -1.2239195228640721E-02
               1.4373356830964649E-03
               3.2875310276891832E-03
              -3.1815389934663214E-02
               1.3873538354137235E-02
               2.8204314346636692E-03
              -9.0907428451410012E-03
               3.0574984860177686E-03
               1.6890386680045739E-02
              -3.9938148961174468E-03
               4.5609076368760982E-03
               1.1487630977635355E-02
              -7.6733976845965004E-03
              -5.0602560152770192E-03
               5.7635402504380125E-03
               3.5622024205853534E-03
               3.3650044960000158E-03
               5.8603649870008906E-03
              -4.0522460036571759E-03
               1.4715653279704173E-03
              -3.3092797097694433E-03
              -7.6519558818349386E-03
               3.4139028606751292E-03
              -4.9041712715915215E-03
              -3.6916435881481683E-03
              -3.3333842304186551E-03
               4.8819090934544779E-03
               3.5395703129770820E-02
               3.1427362207056796E-02
               7.9195887690629973E-03
              -2.8773015840478043E-04
               4.4882353783718730E-03
               6.0754977013475729E-03
               1.3556584407246827E-02
              -8.6123743084881815E-04
              -9.8707860332164464E-03
               1.2843217130192132E-02
               2.2328020549365651E-02
               1.1295897189511312E-02
               9.8699275488101307E-04
              -4.2087212667833744E-03
              -2.9020849717768353E-03
               6.0098257706378243E-03
               3.8906027161483424E-03
              -1.4876425389255885E-02
               3.1238584454492074E-04
               3.7553981357636703E-03
               2.5896072244549211E-03
               2.0483802673366123E-03
               5.2812718474506137E-03
               3.8344871969823707E-03
               1.3486976994393496E-02
               6.4910998298954824E-03
              -8.4892028994932762E-03
              -1.1493751932766627E-03
              -7.5572510253827515E-03
               4.0078779267539635E-03
              -8.8430834147140518E-04
              -3.3251930062434291E-03
              -3.3668395360132368E-03
              -1.7378026940208357E-02
              -8.8498986948853161E-03
              -4.6173439137559176E-03
               6.6530050327891083E-03
               1.4546177837824989E-02
               8.6621402289671530E-03
              -1.1721303369341315E-04
               4.1378304882374092E-03
              -1.5432252869072079E-04
              -3.9397564681610298E-04
              -6.4814575890163257E-03
              -3.4304640854097726E-04
               1.7956908500325934E-02
              -1.1878323509457818E-02
              -2.8845317758324105E-03
              -7.9733029764790780E-03
               2.1352519470204216E-03
              -1.0749520406896289E-03
               3.3176633207588949E-03
               1.4597769221203271E-02
               3.9626903375897232E-03
               1.0248766472789847E-02
              -1.1283979522313100E-02
              -2.2050573926596152E-03
              -3.0884249713042456E-03
              -4.9421100604815100E-03
               2.4419875464318295E-03
               7.1429309751265850E-04
               6.1399892615688343E-04
              -1.2437130177532008E-04
               3.0496289116177812E-03
              -9.0707508964048018E-03
               1.8303620515336093E-02
              -4.1564148442973107E-03
               6.6217510492201951E-03
               5.7250590790066504E-03
               1.5694444275471684E-03
               1.6104899690688778E-04
              -8.7630707630445628E-03
              -8.1249835282652515E-03
               1.1184589568753107E-02
               1.0710039447575615E-02
              -5.0185904707399391E-03
               6.2807054199123568E-03
               5.0864266146235003E-03
               9.0332093621772070E-03
              -1.5080486887477184E-02
               1.4810652088596466E-02
               7.9312760548068944E-03
              -1.2346227537448757E-02
              -4.5750715961300212E-03
               8.0286372005478350E-04
               8.1703012707357407E-03
              -3.8169440946844951E-03
               5.0141719397425689E-04
               6.1917632457638618E-03
              -8.7711213311282565E-03
              -9.5604972428864326E-03
               1.5122360343513394E-02
              -1.6551882807967162E-02
              -8.0893766363822582E-03
               2.2498552197311944E-03
               1.6612619417295468E-03
               8.2377473403265882E-03
              -8.6236320742234061E-03
              -7.2660728177689239E-03
               7.6568276901756221E-03
               4.1115533848201458E-03
              -3.5024743389223674E-04
              -3.4448108746572639E-04
               2.9100116435558333E-03
              -1.3533664143472255E-03
               1.2842783715971010E-02
              -2.6654345378311919E-03
              -5.5636188798683132E-04
               9.0532728953232403E-03
               5.7886885533199811E-03
              -6.2374085680693570E-03
               3.3231054191609770E-03
               4.2243367827132679E-03
               4.3801020520205687E-03
              -2.6371066130899319E-03
               1.3163664154840223E-02
              -1.7890835957423763E-03
               4.5390721835946429E-03
               4.3568921918112711E-03
              -3.3138100673078203E-03
               3.5454510489757009E-03
               8.3099904365984186E-03
              -2.0717418019576246E-04
               6.9342416962994561E-04
               3.6736418533008194E-03
               7.1926607039956856E-03
               7.3829337135096059E-03
              -8.4805914906626086E-03
              -2.2706944169117900E-03
              -4.7574403474379519E-04
              -1.5306382329022699E-03
               1.7793614228269687E-03
               1.6883390226386705E-03
              -5.5686317572579977E-03
               1.5812126738478191E-03
               1.5695097718227278E-02
               3.2450900761035648E-03
               1.6261525840391942E-03
               3.7026183061201427E-04
               1.6876838177844892E-03
              -5.8063976400257560E-04
              -6.0875836461628261E-03
               7.5336997086037343E-03
              -3.7116395290855411E-03
               6.8123734468727667E-04
              -3.3045004798895741E-04
               2.9301382656082000E-03
              -2.1575967942734581E-03
               1.2051205676790304E-03
              -3.3250592212615651E-03
              -1.7498694072345868E-02
               8.7452635035060733E-03
               6.7448022443842431E-03
               1.2851845827752652E-02
              -2.6081387650597871E-03
              -1.5013181855857212E-03
         &END THERMOSTAT_ENERGY
         &RNG_INIT
Wiener process for Thermostat # 1        1 F T T  -1.3877964172148927E+00        3819968671.0        1923139303.0        2505174482.0        1129753110.0        1102497896.0        2318485114.0             12345.0             12345.0             12345.0             12345.0             12345.0             12345.0             12345.0             12345.0             12345.0             12345.0             12345.0             12345.0
Wiener process for Thermostat # 2        1 F T T   5.9690975612399577E-01        1863048650.0        1167059563.0        4156553466.0        2659491592.0        2500563110.0        2967422577.0        3692455944.0        1366884236.0        2968912127.0         335948734.0        4161675175.0         475798818.0        3692455944.0        1366884236.0        2968912127.0         335948734.0        4161675175.0         475798818.0
Wiener process for Thermostat # 3        1 F T T  -1.9577134425325560E-01        2029679022.0        1992813296.0        1475024831.0        3744841000.0        4231717232.0        1872789393.0        1015873554.0        1310354410.0        2249465273.0         994084013.0        2912484720.0        3876682925.0        1015873554.0        1310354410.0        2249465273.0         994084013.0        2912484720.0        3876682925.0
Wiener process for Thermostat # 4        1 F T T  -5.5423907268054418E-01         972191078.0        3239779000.0        2283144792.0        4029872124.0        2868550739.0         388907277.0        2338701263.0        1119171942.0        2570676563.0         317077452.0        3194180850.0         618832124.0        2338701263.0        1119171942.0        2570676563.0         317077452.0        3194180850.0         618832124.0
Wiener process for Thermostat # 5        1 F T T  -3.6874052824979625E-01         246061856.0        2033992607.0        4208640487.0        3425480013.0        1713937449.0        3033523858.0        1597262096.0        3906379055.0        3312112953.0        1016013135.0        4099474108.0         275305423.0        1597262096.0        3906379055.0        3312112953.0        1016013135.0        4099474108.0         275305423.0
Wiener process for Thermostat # 6        1 F T T   5.7875332706651861E-01        4268450248.0        1240555256.0        2123119467.0         299173953.0        2368881629.0        2698044585.0          97147054.0        3131372450.0         829345164.0        3691032523.0        3006063034.0        4259826321.0          97147054.0        3131372450.0         829345164.0        3691032523.0        3006063034.0        4259826321.0
Wiener process for Thermostat # 7        1 F T T  -1.8983145396195047E+00        4260312323.0         705196258.0         937296972.0        1373994383.0        3179698350.0        3757299263.0         796079799.0        2105258207.0         955365076.0        2923159030.0        4116632677.0        3067683584.0         796079799.0        2105258207.0         955365076.0        2923159030.0        4116632677.0        3067683584.0
Wiener process for Thermostat # 8        1 F T T  -3.3116685260855833E-01        2351531572.0        3477839446.0        1021048571.0        1975906828.0        1893564842.0         777663015.0        3281794178.0        2616230133.0        1457051261.0        2762791137.0        2480527362.0        2282316169.0        3281794178.0        2616230133.0        1457051261.0        2762791137.0        2480527362.0        2282316169.0
Wiener process for Thermostat # 9        1 F T T   1.4386427466100791E+00        3265425123.0        2999969280.0        3048908474.0        1047403656.0         134736569.0        4209884843.0        3777646647.0        1837464056.0        4204654757.0         664239048.0        4190510072.0        2959195122.0        3777646647.0        1837464056.0        4204654757.0         664239048.0        4190510072.0        2959195122.0
Wiener process for Thermostat # 10       1 F T T  -2.3947144259907721E-01        2825100143.0        2025717467.0        3827127036.0        1422979577.0        1026966836.0        1481957392.0        4215590817.0        3862461878.0        1087200967.0        1544910132.0         936383720.0        1611370123.0        4215590817.0        3862461878.0        1087200967.0        1544910132.0         936383720.0        1611370123.0
Wiener process for Thermostat # 11       1 F T T   2.8146058156813852E-01        3161233422.0        2404453347.0        1673723662.0         906337025.0          73303549.0        1016746719.0        1683636369.0         362165168.0         814316280.0         869382050.0         980203903.0        2062101717.0        1683636369.0         362165168.0         814316280.0         869382050.0         980203903.0        2062101717.0
Wiener process for Thermostat # 12       1 F T T  -6.6211933450441895E-01         208754144.0        1983222026.0        1378772639.0         460703296.0         651350573.0        3898252829.0         272317999.0         166758548.0         310112982.0         201045826.0        1680231254.0         118290799.0         272317999.0         166758548.0         310112982.0         201045826.0        1680231254.0         118290799.0
Wiener process for Thermostat # 13       1 F T T   2.2418582236869027E-02         545702192.0         878923556.0         464381839.0        1267067492.0        3004786620.0        2258194530.0        2245755202.0        1652682525.0        2865544364.0         721509566.0         209733568.0         592362218.0        2245755202.0        1652682525.0        2865544364.0         721509566.0         209733568.0         592362218.0